Cu                                      
   1.00000000000000     
    10.2710469276006560    0.0000000000000000    0.0000000000000006
     2.5677617319001635    6.2897060242006209    0.0000000000000005
     0.0000000000000000    0.0000000000000000   20.0000000000000000
   Cu
    48
Selective dynamics
Direct
  0.4791813809195062  0.8333333333333357  0.5926542717806100   F   F   F
  0.7291813809195062  0.8333333333333357  0.5926542717806100   F   F   F
  0.9791813809195062  0.8333333333333357  0.5926542717806100   F   F   F
  0.2291813809195062  0.8333333333333357  0.5926542717806100   F   F   F
  0.5625371317242099  0.5002898116008903  0.6684301693554872   T   T   T
  0.8125379282366869  0.5002892523072487  0.6684303806731525   T   T   T
  0.0625375720236598  0.5002889573164051  0.6684300546524008   T   T   T
  0.3125371655778523  0.5002897810187047  0.6684299168505767   T   T   T
  0.7703323330137124  0.1691375103882814  0.6331418996744905   T   T   T
  0.0203326791119605  0.1691375821644523  0.6331417258939728   T   T   T
  0.2703317911172593  0.1691375814181250  0.6331414429193737   T   T   T
  0.5203314667087565  0.1691378729590919  0.6331416247443213   T   T   T
  0.6049219141266491  0.8303395954741251  0.7016671815093286   T   T   T
  0.8549223831619845  0.8303390129557828  0.7016673926714997   T   T   T
  0.1049221785549066  0.8303395481860945  0.7016670647903910   T   T   T
  0.3549218881263578  0.8303398291368514  0.7016667896837425   T   T   T
  0.8125147142528419  0.5000000000000000  0.4444044790678845   F   F   F
  0.0625147142528419  0.5000000000000000  0.4444044790678845   F   F   F
  0.3125147142528419  0.5000000000000000  0.4444044790678845   F   F   F
  0.5625147142528419  0.5000000000000000  0.4444044790678845   F   F   F
  0.8958480475861776  0.1666666666666643  0.5185293754242437   F   F   F
  0.1458480475861776  0.1666666666666643  0.5185293754242437   F   F   F
  0.3958480475861776  0.1666666666666643  0.5185293754242437   F   F   F
  0.6458480475861776  0.1666666666666643  0.5185293754242437   F   F   F
  0.6041813809195062  0.8333333333333357  0.4814669272460677   F   F   F
  0.8541813809195062  0.8333333333333357  0.4814669272460677   F   F   F
  0.1041813809195062  0.8333333333333357  0.4814669272460677   F   F   F
  0.3541813809195062  0.8333333333333357  0.4814669272460677   F   F   F
  0.6875147142528419  0.5000000000000000  0.5555918236024269   F   F   F
  0.9375147142528419  0.5000000000000000  0.5555918236024269   F   F   F
  0.1875147142528419  0.5000000000000000  0.5555918236024269   F   F   F
  0.4375147142528419  0.5000000000000000  0.5555918236024269   F   F   F
  0.6451165564209402  0.1696493682577337  0.2983228254885542   T   T   T
  0.8951165308207863  0.1696501824943452  0.2983233837041904   T   T   T
  0.1451161063527549  0.1696499036970917  0.2983235475733325   T   T   T
  0.3951161489741383  0.1696493248685851  0.2983226662176700   T   T   T
  0.7297125615976762  0.8308020797776087  0.3668513832094588   T   T   T
  0.9797133247447686  0.8308018187608557  0.3668515507371040   T   T   T
  0.2297128014945483  0.8308018935215189  0.3668516991415766   T   T   T
  0.4797123659436417  0.8308020002299399  0.3668516333142358   T   T   T
  0.6875077566423248  0.4997470932015492  0.3315703071752545   T   T   T
  0.9375081336788554  0.4997462582929876  0.3315703572880344   T   T   T
  0.1875078111535091  0.4997470073999766  0.3315708868741525   T   T   T
  0.4375071104280659  0.4997476393577820  0.3315707453038464   T   T   T
  0.5208480475861776  0.1666666666666643  0.4073420308896942   F   F   F
  0.7708480475861776  0.1666666666666643  0.4073420308896942   F   F   F
  0.0208480475861776  0.1666666666666643  0.4073420308896942   F   F   F
  0.2708480475861776  0.1666666666666643  0.4073420308896942   F   F   F
 
  0.00000000E+00  0.00000000E+00  0.00000000E+00
  0.00000000E+00  0.00000000E+00  0.00000000E+00
  0.00000000E+00  0.00000000E+00  0.00000000E+00
  0.00000000E+00  0.00000000E+00  0.00000000E+00
  0.00000000E+00  0.00000000E+00  0.00000000E+00
  0.00000000E+00  0.00000000E+00  0.00000000E+00
  0.00000000E+00  0.00000000E+00  0.00000000E+00
  0.00000000E+00  0.00000000E+00  0.00000000E+00
  0.00000000E+00  0.00000000E+00  0.00000000E+00
  0.00000000E+00  0.00000000E+00  0.00000000E+00
  0.00000000E+00  0.00000000E+00  0.00000000E+00
  0.00000000E+00  0.00000000E+00  0.00000000E+00
  0.00000000E+00  0.00000000E+00  0.00000000E+00
  0.00000000E+00  0.00000000E+00  0.00000000E+00
  0.00000000E+00  0.00000000E+00  0.00000000E+00
  0.00000000E+00  0.00000000E+00  0.00000000E+00
  0.00000000E+00  0.00000000E+00  0.00000000E+00
  0.00000000E+00  0.00000000E+00  0.00000000E+00
  0.00000000E+00  0.00000000E+00  0.00000000E+00
  0.00000000E+00  0.00000000E+00  0.00000000E+00
  0.00000000E+00  0.00000000E+00  0.00000000E+00
  0.00000000E+00  0.00000000E+00  0.00000000E+00
  0.00000000E+00  0.00000000E+00  0.00000000E+00
  0.00000000E+00  0.00000000E+00  0.00000000E+00
  0.00000000E+00  0.00000000E+00  0.00000000E+00
  0.00000000E+00  0.00000000E+00  0.00000000E+00
  0.00000000E+00  0.00000000E+00  0.00000000E+00
  0.00000000E+00  0.00000000E+00  0.00000000E+00
  0.00000000E+00  0.00000000E+00  0.00000000E+00
  0.00000000E+00  0.00000000E+00  0.00000000E+00
  0.00000000E+00  0.00000000E+00  0.00000000E+00
  0.00000000E+00  0.00000000E+00  0.00000000E+00
  0.00000000E+00  0.00000000E+00  0.00000000E+00
  0.00000000E+00  0.00000000E+00  0.00000000E+00
  0.00000000E+00  0.00000000E+00  0.00000000E+00
  0.00000000E+00  0.00000000E+00  0.00000000E+00
  0.00000000E+00  0.00000000E+00  0.00000000E+00
  0.00000000E+00  0.00000000E+00  0.00000000E+00
  0.00000000E+00  0.00000000E+00  0.00000000E+00
  0.00000000E+00  0.00000000E+00  0.00000000E+00
  0.00000000E+00  0.00000000E+00  0.00000000E+00
  0.00000000E+00  0.00000000E+00  0.00000000E+00
  0.00000000E+00  0.00000000E+00  0.00000000E+00
  0.00000000E+00  0.00000000E+00  0.00000000E+00
  0.00000000E+00  0.00000000E+00  0.00000000E+00
  0.00000000E+00  0.00000000E+00  0.00000000E+00
  0.00000000E+00  0.00000000E+00  0.00000000E+00
  0.00000000E+00  0.00000000E+00  0.00000000E+00
