 C  H                                   
   1.00000000000000     
    10.0000000000000000    0.0000000000000000    0.0000000000000000
     0.0000000000000000   10.0000000000000000    0.0000000000000000
     0.0000000000000000    0.0000000000000000   10.0000000000000000
   C    H 
     1     4
Direct
  0.5000000000000000  0.5000000000000000  0.5000000000000000
  0.5629118000000020  0.5629118000000020  0.5629118000000020
  0.4370881999999980  0.4370881999999980  0.5629118000000020
  0.5629118000000020  0.4370881999999980  0.4370881999999980
  0.4370881999999980  0.5629118000000020  0.4370881999999980
 
  0.00000000E+00  0.00000000E+00  0.00000000E+00
  0.00000000E+00  0.00000000E+00  0.00000000E+00
  0.00000000E+00  0.00000000E+00  0.00000000E+00
  0.00000000E+00  0.00000000E+00  0.00000000E+00
  0.00000000E+00  0.00000000E+00  0.00000000E+00
