 C  H 
 1.0000000000000000
    10.0000000000000000    0.0000000000000000    0.0000000000000000
     0.0000000000000000   10.0000000000000000    0.0000000000000000
     0.0000000000000000    0.0000000000000000   10.0000000000000000
 C   H  
   1   4
Cartesian
  5.0000000000000000  5.0000000000000000  5.0000000000000000
  5.6291180000000001  5.6291180000000001  5.6291180000000001
  4.3708819999999999  4.3708819999999999  5.6291180000000001
  5.6291180000000001  4.3708819999999999  4.3708819999999999
  4.3708819999999999  5.6291180000000001  4.3708819999999999
