 H  C  O Cu                             
   1.00000000000000     
    10.2710469276006560    0.0000000000000000    0.0000000000000006
     2.5677617319001635    6.2897060242006209    0.0000000000000005
     0.0000000000000000    0.0000000000000000   30.0000000000000000
   H    C    O    Cu
     2     2     4    48
Selective dynamics
Direct
  0.3534084469683887  0.1208316239983928  0.2398663058917882   T   T   T
  0.6465515616925652  0.8790625726828477  0.7600718733571173   T   T   T
  0.6672190460923741  0.8585333033962320  0.6965475271503705   T   T   T
  0.3327383201643733  0.1414515953820888  0.3033783619908147   T   T   T
  0.4051450485369756  0.1348998387227208  0.2664615884697314   T   T   T
  0.2131139134617432  0.1292884763334459  0.3006432619502813   T   T   T
  0.7868447671790159  0.8706802912086979  0.6992924293929071   T   T   T
  0.5948407128481558  0.8650430851801614  0.7334652599950101   T   T   T
  0.1407627226363211  0.1594246639712682  0.3639147697981822   T   T   T
  0.6463297772487043  0.1663345228860429  0.3650199366746398   T   T   T
  0.8933233448242694  0.1646174755002828  0.3656582778011967   T   T   T
  0.4010204287939899  0.1647760481558504  0.3634203100917137   T   T   T
  0.6870649442439837  0.4997691356342731  0.3885467845098968   T   T   T
  0.9371377581432503  0.4991234712716162  0.3889170469922442   T   T   T
  0.1868997157020116  0.5011209307632832  0.3893638545268550   T   T   T
  0.4375939569735774  0.5004597970026947  0.3889066619723247   T   T   T
  0.3125020243079035  0.5000403564425184  0.4629061959652105   F   F   F
  0.5625020243079035  0.5000403564425184  0.4629061959652105   F   F   F
  0.0625020243079035  0.5000403564425184  0.4629061959652105   F   F   F
  0.8125020243079035  0.5000403564425184  0.4629061959652105   F   F   F
  0.3541686909745678  0.8333736897758541  0.4876144947506660   F   F   F
  0.1041686909745678  0.8333736897758541  0.4876144947506660   F   F   F
  0.8541686909745678  0.8333736897758541  0.4876144947506660   F   F   F
  0.6041686909745678  0.8333736897758541  0.4876144947506660   F   F   F
  0.4796928197071103  0.8317977298763833  0.4125937109244519   T   T   T
  0.7292631054517300  0.8314132065160438  0.4121935836471713   T   T   T
  0.2295174876610962  0.8308468458850937  0.4130127962026720   T   T   T
  0.9796527671901417  0.8318190427386916  0.4123479773259481   T   T   T
  0.2708353576412392  0.1667070231091827  0.4381978971797551   F   F   F
  0.5208353576412392  0.1667070231091827  0.4381978971797551   F   F   F
  0.0208353576412392  0.1667070231091827  0.4381978971797551   F   F   F
  0.7708353576412392  0.1667070231091827  0.4381978971797551   F   F   F
  0.6875020243079035  0.5000403564425184  0.5370310923215840   F   F   F
  0.9375020243079035  0.5000403564425184  0.5370310923215840   F   F   F
  0.1875020243079035  0.5000403564425184  0.5370310923215840   F   F   F
  0.4375020243079035  0.5000403564425184  0.5370310923215840   F   F   F
  0.3958353576412392  0.1667070231091827  0.5123227935361285   F   F   F
  0.1458353576412392  0.1667070231091827  0.5123227935361285   F   F   F
  0.6458353576412392  0.1667070231091827  0.5123227935361285   F   F   F
  0.8958353576412392  0.1667070231091827  0.5123227935361285   F   F   F
  0.4791686909745678  0.8333736897758541  0.5617393911070394   F   F   F
  0.7291686909745678  0.8333736897758541  0.5617393911070394   F   F   F
  0.9791686909745678  0.8333736897758541  0.5617393911070394   F   F   F
  0.2291686909745678  0.8333736897758541  0.5617393911070394   F   F   F
  0.5203005018806919  0.1682958401829996  0.5873435749734509   T   T   T
  0.2707280157203578  0.1686800549434876  0.5877458563591855   T   T   T
  0.0203396186010994  0.1682802076017713  0.5875897792522616   T   T   T
  0.7704881683268793  0.1692381701153002  0.5869243632454287   T   T   T
  0.3536434301977036  0.8337490836203818  0.6349135033782770   T   T   T
  0.1066593648025181  0.8354916602304598  0.6342753433400372   T   T   T
  0.8592101822165175  0.8406692138057374  0.6360245218930123   T   T   T
  0.5989662714924335  0.8352938575931431  0.6365090538718402   T   T   T
  0.0628503416136401  0.5009824085824964  0.6110216202243989   T   T   T
  0.3129267012773080  0.5003141603312903  0.6113961778703781   T   T   T
  0.5624018961457162  0.4996047090325266  0.6110294470861051   T   T   T
  0.8130978880586165  0.4989612500537352  0.6105729309975712   T   T   T
 
  0.00000000E+00  0.00000000E+00  0.00000000E+00
  0.00000000E+00  0.00000000E+00  0.00000000E+00
  0.00000000E+00  0.00000000E+00  0.00000000E+00
  0.00000000E+00  0.00000000E+00  0.00000000E+00
  0.00000000E+00  0.00000000E+00  0.00000000E+00
  0.00000000E+00  0.00000000E+00  0.00000000E+00
  0.00000000E+00  0.00000000E+00  0.00000000E+00
  0.00000000E+00  0.00000000E+00  0.00000000E+00
  0.00000000E+00  0.00000000E+00  0.00000000E+00
  0.00000000E+00  0.00000000E+00  0.00000000E+00
  0.00000000E+00  0.00000000E+00  0.00000000E+00
  0.00000000E+00  0.00000000E+00  0.00000000E+00
  0.00000000E+00  0.00000000E+00  0.00000000E+00
  0.00000000E+00  0.00000000E+00  0.00000000E+00
  0.00000000E+00  0.00000000E+00  0.00000000E+00
  0.00000000E+00  0.00000000E+00  0.00000000E+00
  0.00000000E+00  0.00000000E+00  0.00000000E+00
  0.00000000E+00  0.00000000E+00  0.00000000E+00
  0.00000000E+00  0.00000000E+00  0.00000000E+00
  0.00000000E+00  0.00000000E+00  0.00000000E+00
  0.00000000E+00  0.00000000E+00  0.00000000E+00
  0.00000000E+00  0.00000000E+00  0.00000000E+00
  0.00000000E+00  0.00000000E+00  0.00000000E+00
  0.00000000E+00  0.00000000E+00  0.00000000E+00
  0.00000000E+00  0.00000000E+00  0.00000000E+00
  0.00000000E+00  0.00000000E+00  0.00000000E+00
  0.00000000E+00  0.00000000E+00  0.00000000E+00
  0.00000000E+00  0.00000000E+00  0.00000000E+00
  0.00000000E+00  0.00000000E+00  0.00000000E+00
  0.00000000E+00  0.00000000E+00  0.00000000E+00
  0.00000000E+00  0.00000000E+00  0.00000000E+00
  0.00000000E+00  0.00000000E+00  0.00000000E+00
  0.00000000E+00  0.00000000E+00  0.00000000E+00
  0.00000000E+00  0.00000000E+00  0.00000000E+00
  0.00000000E+00  0.00000000E+00  0.00000000E+00
  0.00000000E+00  0.00000000E+00  0.00000000E+00
  0.00000000E+00  0.00000000E+00  0.00000000E+00
  0.00000000E+00  0.00000000E+00  0.00000000E+00
  0.00000000E+00  0.00000000E+00  0.00000000E+00
  0.00000000E+00  0.00000000E+00  0.00000000E+00
  0.00000000E+00  0.00000000E+00  0.00000000E+00
  0.00000000E+00  0.00000000E+00  0.00000000E+00
  0.00000000E+00  0.00000000E+00  0.00000000E+00
  0.00000000E+00  0.00000000E+00  0.00000000E+00
  0.00000000E+00  0.00000000E+00  0.00000000E+00
  0.00000000E+00  0.00000000E+00  0.00000000E+00
  0.00000000E+00  0.00000000E+00  0.00000000E+00
  0.00000000E+00  0.00000000E+00  0.00000000E+00
  0.00000000E+00  0.00000000E+00  0.00000000E+00
  0.00000000E+00  0.00000000E+00  0.00000000E+00
  0.00000000E+00  0.00000000E+00  0.00000000E+00
  0.00000000E+00  0.00000000E+00  0.00000000E+00
  0.00000000E+00  0.00000000E+00  0.00000000E+00
  0.00000000E+00  0.00000000E+00  0.00000000E+00
  0.00000000E+00  0.00000000E+00  0.00000000E+00
  0.00000000E+00  0.00000000E+00  0.00000000E+00
