 H  C  O Cu 
 1.0000000000000000
    10.2710469276006560    0.0000000000000000    0.0000000000000006
     2.5677617319001635    6.2897060242006209    0.0000000000000005
     0.0000000000000000    0.0000000000000000   20.0000000000000000
 H   C   O   Cu 
   4   2   2  48
Selective dynamics
Cartesian
  7.0653724487046876  1.0812052860222199  2.7387472819023673   T   T   T
  4.5765749114170458  1.0722149471312399  3.0753633528559026   T   T   T
  8.2622337480837817  5.2174910770693881 16.9246366471440979   T   T   T
  5.7734362107961399  5.2085007381784081 17.2612527180976301   T   T   T
  7.8077063660827051  5.2616297662783449 15.9015356895617259   T   T   T
  5.0311022934181224  1.0280762579222824  4.0984643104382723   T   T   T
  6.5252426645014685  1.0129485200216370  3.9499726954516348   T   T   T
  6.3135659949993599  5.2767575041789900 16.0500273045483617   T   T   T
  1.9258212989251233  1.0482843373667696  5.9231307003997058   T   T   T
  7.0613447627254544  1.0482843373667696  5.9231307003997067   T   T   T
  9.6291064946256171  1.0482843373667696  5.9231307003997067   T   T   T
  4.4935830308252935  1.0482843373667696  5.9231307003997093   T   T   T
  8.3452256286755429  3.1448530121003180  6.6643796639633983   T   T   T
 10.9129873605756949  3.1448530121003180  6.6643796639633983   T   T   T
  3.2097021648752095  3.1448530121003180  6.6643796639633992   T   T   T
  5.7774638967753749  3.1448530121003180  6.6643796639633983   T   T   T
  4.4935830308252918  3.1448530121003180  8.8881265546544661   F   F   F
  7.0613447627254553  3.1448530121003180  8.8881265546544661   F   F   F
  1.9258212989251224  3.1448530121003180  8.8881265546544661   F   F   F
  9.6291064946256206  3.1448530121003180  8.8881265546544697   F   F   F
  5.7774638967753651  5.2414216868338555  9.6293755182181560   F   F   F
  3.2097021648752047  5.2414216868338555  9.6293755182181560   F   F   F
 10.9129873605756931  5.2414216868338555  9.6293755182181595   F   F   F
  8.3452256286755322  5.2414216868338555  9.6293755182181595   F   F   F
  7.0613447627254553  5.2414216868338555  7.4056286275270864   T   T   T
  9.6291064946256171  5.2414216868338555  7.4056286275270864   T   T   T
  4.4935830308252935  5.2414216868338555  7.4056286275270864   T   T   T
 12.1968682265257762  5.2414216868338555  7.4056286275270899   T   T   T
  3.2097021648752100  1.0482843373667665  8.1468775910907762   F   F   F
  5.7774638967753775  1.0482843373667665  8.1468775910907762   F   F   F
  0.6419404329750402  1.0482843373667665  8.1468775910907780   F   F   F
  8.3452256286755446  1.0482843373667665  8.1468775910907798   F   F   F
  8.3452256286755429  3.1448530121003180 11.1118734453455374   F   F   F
 10.9129873605756949  3.1448530121003180 11.1118734453455374   F   F   F
  3.2097021648752153  3.1448530121003180 11.1118734453455374   F   F   F
  5.7774638967753784  3.1448530121003180 11.1118734453455374   F   F   F
  4.4935830308252918  1.0482843373667687 10.3706244817818476   F   F   F
  1.9258212989251218  1.0482843373667687 10.3706244817818476   F   F   F
  7.0613447627254597  1.0482843373667687 10.3706244817818476   F   F   F
  9.6291064946256206  1.0482843373667687 10.3706244817818476   F   F   F
  7.0613447627254571  5.2414216868338555 11.8531224089092273   F   F   F
  9.6291064946256206  5.2414216868338555 11.8531224089092273   F   F   F
 12.1968682265257780  5.2414216868338555 11.8531224089092255   F   F   F
  4.4935830308252935  5.2414216868338555 11.8531224089092273   F   F   F
  5.7774638967753775  1.0482843373667687 12.5943713724729349   T   T   T
  3.2097021648752131  1.0482843373667687 12.5943713724729349   T   T   T
  0.6419404329750410  1.0482843373667687 12.5943713724729349   T   T   T
  8.3452256286755446  1.0482843373667687 12.5943713724729349   T   T   T
  5.7774638967753695  5.2414216868338555 14.0768692996002969   T   T   T
  3.2097021648752069  5.2414216868338555 14.0768692996002969   T   T   T
 10.9129873605756966  5.2414216868338555 14.0768692996002951   T   T   T
  8.3452256286755340  5.2414216868338555 14.0768692996002969   T   T   T
  1.9258212989251231  3.1448530121003189 13.3356203360366088   T   T   T
  4.4935830308252926  3.1448530121003189 13.3356203360366088   T   T   T
  7.0613447627254535  3.1448530121003189 13.3356203360366070   T   T   T
  9.6291064946256189  3.1448530121003189 13.3356203360366070   T   T   T
