 C  O Cu 
 1.0000000000000000
    10.2710469276006560    0.0000000000000000    0.0000000000000006
    -0.0000000000000006   10.2710469276006560    0.0000000000000006
     0.0000000000000000    0.0000000000000000   20.0000000000000000
 C   O   Cu 
   2   2  64
Selective dynamics
Cartesian
  1.9258212989251229  1.9258212989251244 14.5735225996468856   T   T   T
  8.3452256286755340  8.3452256286755322  5.4264774003531144   T   T   T
  1.9258212989251229  1.9258212989251244 15.7035225996468917   T   T   T
  8.3452256286755340  8.3452256286755322  4.2964774003531083   T   T   T
  4.4935830308252882  1.9258212989251244 12.7235225996468841   T   T   T
  4.4935830308252855  4.4935830308252882 12.7235225996468841   T   T   T
  1.9258212989251242  1.9258212989251244 12.7235225996468841   T   T   T
  1.9258212989251240  7.0613447627254518 12.7235225996468841   T   T   T
  1.9258212989251238  9.6291064946256135 12.7235225996468841   T   T   T
  7.0613447627254518  1.9258212989251244 12.7235225996468841   T   T   T
  8.3452256286755322  3.2097021648752060  7.2764774003531194   T   T   T
  8.3452256286755322  0.6419404329750422  7.2764774003531194   T   T   T
  5.7774638967753678  8.3452256286755322  7.2764774003531194   T   T   T
  5.7774638967753704  5.7774638967753704  7.2764774003531194   T   T   T
  5.7774638967753704  3.2097021648752060  7.2764774003531194   T   T   T
  5.7774638967753704  0.6419404329750422  7.2764774003531194   T   T   T
  3.2097021648752060  0.6419404329750422  7.2764774003531194   T   T   T
  3.2097021648752055  8.3452256286755322  7.2764774003531194   T   T   T
  7.0613447627254518  7.0613447627254518  9.0921591334510374   F   F   F
  1.9258212989251238  9.6291064946256135  9.0921591334510374   F   F   F
  4.4935830308252882  9.6291064946256135  9.0921591334510374   F   F   F
  1.9258212989251240  7.0613447627254518  9.0921591334510374   F   F   F
  4.4935830308252891  7.0613447627254518  9.0921591334510374   F   F   F
  4.4935830308252855  4.4935830308252882  9.0921591334510374   F   F   F
  9.6291064946256135  1.9258212989251244  9.0921591334510374   F   F   F
  9.6291064946256135  4.4935830308252882  9.0921591334510374   F   F   F
  9.6291064946256135  7.0613447627254518  9.0921591334510374   F   F   F
  7.0613447627254500  9.6291064946256135  9.0921591334510374   F   F   F
  9.6291064946256135  9.6291064946256135  9.0921591334510374   F   F   F
  1.9258212989251242  1.9258212989251244  9.0921591334510374   F   F   F
  4.4935830308252882  1.9258212989251244  9.0921591334510374   F   F   F
  1.9258212989251242  4.4935830308252882  9.0921591334510374   F   F   F
  0.6419404329750420  3.2097021648752060 10.9078408665489555   F   F   F
  0.6419404329750419  5.7774638967753704 10.9078408665489555   F   F   F
  0.6419404329750418  8.3452256286755322 10.9078408665489555   F   F   F
  3.2097021648752060  0.6419404329750422 10.9078408665489555   F   F   F
  3.2097021648752055  5.7774638967753704 10.9078408665489555   F   F   F
  3.2097021648752060  3.2097021648752060 10.9078408665489555   F   F   F
  3.2097021648752055  8.3452256286755322 10.9078408665489555   F   F   F
  8.3452256286755322  0.6419404329750422 10.9078408665489555   F   F   F
  8.3452256286755322  3.2097021648752060 10.9078408665489555   F   F   F
  5.7774638967753704  3.2097021648752060 10.9078408665489555   F   F   F
  5.7774638967753704  5.7774638967753704 10.9078408665489555   F   F   F
  5.7774638967753704  0.6419404329750422 10.9078408665489555   F   F   F
  0.6419404329750422  0.6419404329750422 10.9078408665489555   F   F   F
  8.3452256286755322  5.7774638967753704 10.9078408665489661   F   F   F
  8.3452256286755322  8.3452256286755322 10.9078408665489661   F   F   F
  5.7774638967753678  8.3452256286755322 10.9078408665489661   F   F   F
  4.4935830308252882  9.6291064946256135 12.7235225996468841   T   T   T
  9.6291064946256135  7.0613447627254518 12.7235225996468841   T   T   T
  7.0613447627254518  7.0613447627254518 12.7235225996468841   T   T   T
  9.6291064946256135  9.6291064946256135 12.7235225996468841   T   T   T
  9.6291064946256135  4.4935830308252882 12.7235225996468841   T   T   T
  7.0613447627254500  9.6291064946256135 12.7235225996468841   T   T   T
  7.0613447627254518  4.4935830308252882 12.7235225996468841   T   T   T
  9.6291064946256135  1.9258212989251244 12.7235225996468841   T   T   T
  1.9258212989251242  4.4935830308252882 12.7235225996468841   T   T   T
  4.4935830308252891  7.0613447627254518 12.7235225996468841   T   T   T
  3.2097021648752060  3.2097021648752060  7.2764774003531194   T   T   T
  3.2097021648752055  5.7774638967753704  7.2764774003531194   T   T   T
  0.6419404329750419  5.7774638967753704  7.2764774003531194   T   T   T
  0.6419404329750418  8.3452256286755322  7.2764774003531194   T   T   T
  0.6419404329750420  3.2097021648752060  7.2764774003531194   T   T   T
  0.6419404329750422  0.6419404329750422  7.2764774003531194   T   T   T
  7.0613447627254518  1.9258212989251244  9.0921591334510374   F   F   F
  7.0613447627254518  4.4935830308252882  9.0921591334510374   F   F   F
  8.3452256286755322  5.7774638967753704  7.2764774003531194   T   T   T
  8.3452256286755322  8.3452256286755322  7.2764774003531194   T   T   T
