 H                                      
   1.00000000000000     
    10.0000000000000000    0.0000000000000000    0.0000000000000000
     0.0000000000000000   10.0000000000000000    0.0000000000000000
     0.0000000000000000    0.0000000000000000   10.0000000000000000
   H 
     2
Direct
  0.4996654663475146  0.5035897438964709  0.5366108863592312
  0.5003345336524854  0.4964102561035292  0.4633891136407688
 
  0.00000000E+00  0.00000000E+00  0.00000000E+00
  0.00000000E+00  0.00000000E+00  0.00000000E+00
