 C  O Cu 
 1.0000000000000000
    10.2710469276006560    0.0000000000000000    0.0000000000000006
     2.5677617319001635    6.2897060242006209    0.0000000000000005
     0.0000000000000000    0.0000000000000000   32.6149543968023465
 C   O   Cu 
   2   2  48
Selective dynamics
Cartesian
  5.8868368253634786  0.9874747108479315 10.7261566796642285   T   T   T
  7.2293087750594616  5.2614462664662707 21.8887960990501327   T   T   T
  5.8876778983807210  1.0276837521804394  9.5744331885926037   T   T   T
  7.2284677020422183  5.2212372251337635 23.0405195901217574   T   T   T
  4.6280643428637029  1.0199364664234714 12.2268003278750204   T   T   T
  9.7649959928357646  1.0348818628170044 12.2617605607727569   T   T   T
  7.2263982318654705  1.0341744754402911 12.2752435522710908   T   T   T
  2.0395319860005121  1.0305707609965533 12.2829661939130332   T   T   T
  9.7630590050505965  5.2073092184977634 13.6507576434308930   T   T   T
  4.6354365609305601  5.2162634504548571 13.6536531095130087   T   T   T
 12.3296202180748580  5.2133194016174125 13.6562981827385936   T   T   T
  7.1985901565031583  5.2044834196008329 13.6686089110062809   T   T   T
  8.4850969813596357  3.1284296978474160 12.9377056153613186   T   T   T
 11.0462652699803314  3.1320975023781763 12.9382134325251084   T   T   T
  5.9261396179457098  3.1475058454503633 12.9639118367158623   T   T   T
  3.3383016522660665  3.1520034552912946 12.9644788735388019   T   T   T
  7.1999999999999735  3.1244596933357069 15.1956037530557229   F   F   F
  4.6322382680998100  3.1244596933357069 15.1956037530557229   F   F   F
  2.0644765361996460  3.1244596933357069 15.1956037530557229   F   F   F
  9.7677617319001371  3.1244596933357069 15.1956037530557229   F   F   F
  8.4838808659500380  5.2210283680692626 15.9368527166194358   F   F   F
 11.0516425978502024  5.2210283680692626 15.9368527166194340   F   F   F
  3.3483574021497096  5.2210283680692626 15.9368527166194358   F   F   F
  5.9161191340498736  5.2210283680692626 15.9368527166194358   F   F   F
  9.7677617319001566  1.0278910186021517 16.6781016801829125   F   F   F
  2.0644765361996646  1.0278910186021517 16.6781016801829125   F   F   F
  4.6322382680998277  1.0278910186021517 16.6781016801829125   F   F   F
  7.1999999999999922  1.0278910186021517 16.6781016801829125   F   F   F
  0.7805956702495824  1.0278910186021517 14.4543547894920117   F   F   F
  3.3483574021497464  1.0278910186021517 14.4543547894920117   F   F   F
  5.9161191340499100  1.0278910186021517 14.4543547894920152   F   F   F
  8.4838808659500753  1.0278910186021517 14.4543547894920152   F   F   F
  8.4838808659500557  3.1244596933357069 17.4193506437466290   F   F   F
 11.0516425978502202  3.1244596933357069 17.4193506437466290   F   F   F
  3.3483574021497282  3.1244596933357069 17.4193506437466290   F   F   F
  5.9161191340498913  3.1244596933357069 17.4193506437466290   F   F   F
  7.1999999999999558  5.2210283680692626 18.1605996073103348   F   F   F
  9.7677617319001193  5.2210283680692626 18.1605996073103348   F   F   F
 12.3355234638002837  5.2210283680692626 18.1605996073103348   F   F   F
  4.6322382680997922  5.2210283680692626 18.1605996073103348   F   F   F
  9.7780847858628199  3.0968472472958180 19.6504923753196756   T   T   T
  7.1903813541227404  3.1012614092763133 19.6510332856860153   T   T   T
  2.0703269017404917  3.1167558709019003 19.6767046519296862   T   T   T
  4.6314953272927299  3.1204540935008653 19.6772035022375746   T   T   T
  5.9173539319844526  1.0444792584480902 18.9463336359098804   T   T   T
  0.7863225488596375  1.0356571665549907 18.9586477665848427   T   T   T
  8.4805819756938927  1.0326637781334613 18.9612765406025581   T   T   T
  3.3529023564372062  1.0417000638464566 18.9642091142043618   T   T   T
  8.4878470830320261  5.2290964275034044 20.3880774925340340   T   T   T
  3.3510878389546082  5.2140620650429419 20.3533175904169035   T   T   T
  5.8894104900922457  5.2148729574501260 20.3397223980148496   T   T   T
 11.0767701918030550  5.2182449207140742 20.3319973344143037   T   T   T
