 H  C  O Cu                             
   1.00000000000000     
    10.2710469276006560    0.0000000000000000    0.0000000000000006
     2.5677617319001635    6.2897060242006209    0.0000000000000005
     0.0000000000000000    0.0000000000000000   30.0000000000000000
   H    C    O    Cu
     4     2     2    48
Selective dynamics
Direct
  0.3269513890080304  0.4035884894890245  0.2759692533946421   T   T   T
  0.4319940346303639  0.9612929014341915  0.2873237924199756   T   T   T
  0.5682759135225908  0.0387070985658085  0.7125778892809933   T   T   T
  0.6724504747086968  0.5965571191243910  0.7240771711242004   T   T   T
  0.6040234364994816  0.8766464127336349  0.6990687153169688   T   T   T
  0.3960382328709855  0.1232699238179791  0.3008838314535183   T   T   T
  0.3597431373030631  0.2555083397289337  0.2665204248088884   T   T   T
  0.6399852281119962  0.7446103268680559  0.7334795751911116   T   T   T
  0.1460613297189539  0.1685677028807930  0.3651852373000040   T   T   T
  0.6452868660298350  0.1701400987942634  0.3652056019889542   T   T   T
  0.8946381209297556  0.1709654091305310  0.3655464706866027   T   T   T
  0.3952147640904329  0.1710543536799634  0.3631378579615472   T   T   T
  0.6871980911246496  0.5018516495109466  0.3878979900483941   T   T   T
  0.9370833429003085  0.5018181793737568  0.3878751184120901   T   T   T
  0.1862744019054290  0.5029938684586668  0.3888079348368123   T   T   T
  0.4378572269243648  0.5025467112495221  0.3889392653804364   T   T   T
  0.3125050230424478  0.4997410779376708  0.4629231309054163   F   F   F
  0.5625050230424478  0.4997410779376708  0.4629231309054163   F   F   F
  0.0625050230424478  0.4997410779376708  0.4629231309054163   F   F   F
  0.8125050230424478  0.4997410779376708  0.4629231309054163   F   F   F
  0.3541716897091121  0.8330744112710065  0.4876314296908717   F   F   F
  0.1041716897091121  0.8330744112710065  0.4876314296908717   F   F   F
  0.8541716897091121  0.8330744112710065  0.4876314296908717   F   F   F
  0.6041716897091121  0.8330744112710065  0.4876314296908717   F   F   F
  0.4795391732500747  0.8325076587246869  0.4121535393754101   T   T   T
  0.7296368785282539  0.8323440497414367  0.4113279338808411   T   T   T
  0.2295733708654737  0.8323916788554939  0.4114349779726467   T   T   T
  0.9794616785853449  0.8325977491223213  0.4112120099397956   T   T   T
  0.2708383563757835  0.1664077446043351  0.4382148321199608   F   F   F
  0.5208383563757835  0.1664077446043351  0.4382148321199608   F   F   F
  0.0208383563757835  0.1664077446043351  0.4382148321199608   F   F   F
  0.7708383563757835  0.1664077446043351  0.4382148321199608   F   F   F
  0.6875050230424478  0.4997410779376708  0.5370480272617897   F   F   F
  0.9375050230424478  0.4997410779376708  0.5370480272617897   F   F   F
  0.1875050230424478  0.4997410779376708  0.5370480272617897   F   F   F
  0.4375050230424478  0.4997410779376708  0.5370480272617897   F   F   F
  0.3958383563757835  0.1664077446043351  0.5123397284763342   F   F   F
  0.1458383563757835  0.1664077446043351  0.5123397284763342   F   F   F
  0.6458383563757835  0.1664077446043351  0.5123397284763342   F   F   F
  0.8958383563757835  0.1664077446043351  0.5123397284763342   F   F   F
  0.4791716897091121  0.8330744112710065  0.5617563260472451   F   F   F
  0.7291716897091121  0.8330744112710065  0.5617563260472451   F   F   F
  0.9791716897091121  0.8330744112710065  0.5617563260472451   F   F   F
  0.2291716897091121  0.8330744112710065  0.5617563260472451   F   F   F
  0.5204662009273235  0.1669968896491412  0.5878214611730144   T   T   T
  0.2703765275635348  0.1671678587758123  0.5886506758986769   T   T   T
  0.0205383214146551  0.1669425639169049  0.5887560303460830   T   T   T
  0.7704531802656689  0.1671060533116417  0.5885371098429317   T   T   T
  0.3547239614868190  0.8293892794918207  0.6347638892814587   T   T   T
  0.1053462037913633  0.8286258214843443  0.6344330197785766   T   T   T
  0.8539159588491003  0.8309255786011107  0.6347890615437848   T   T   T
  0.6047689644645047  0.8284750101947296  0.6368361721846725   T   T   T
  0.0629277976641447  0.4976980477344171  0.6121003589682275   T   T   T
  0.3128116518107902  0.4976883924398408  0.6120776799828320   T   T   T
  0.5621575174132971  0.4969197454586975  0.6110307063402374   T   T   T
  0.8137205883096570  0.4965186170639058  0.6111676294295592   T   T   T
 
  0.00000000E+00  0.00000000E+00  0.00000000E+00
  0.00000000E+00  0.00000000E+00  0.00000000E+00
  0.00000000E+00  0.00000000E+00  0.00000000E+00
  0.00000000E+00  0.00000000E+00  0.00000000E+00
  0.00000000E+00  0.00000000E+00  0.00000000E+00
  0.00000000E+00  0.00000000E+00  0.00000000E+00
  0.00000000E+00  0.00000000E+00  0.00000000E+00
  0.00000000E+00  0.00000000E+00  0.00000000E+00
  0.00000000E+00  0.00000000E+00  0.00000000E+00
  0.00000000E+00  0.00000000E+00  0.00000000E+00
  0.00000000E+00  0.00000000E+00  0.00000000E+00
  0.00000000E+00  0.00000000E+00  0.00000000E+00
  0.00000000E+00  0.00000000E+00  0.00000000E+00
  0.00000000E+00  0.00000000E+00  0.00000000E+00
  0.00000000E+00  0.00000000E+00  0.00000000E+00
  0.00000000E+00  0.00000000E+00  0.00000000E+00
  0.00000000E+00  0.00000000E+00  0.00000000E+00
  0.00000000E+00  0.00000000E+00  0.00000000E+00
  0.00000000E+00  0.00000000E+00  0.00000000E+00
  0.00000000E+00  0.00000000E+00  0.00000000E+00
  0.00000000E+00  0.00000000E+00  0.00000000E+00
  0.00000000E+00  0.00000000E+00  0.00000000E+00
  0.00000000E+00  0.00000000E+00  0.00000000E+00
  0.00000000E+00  0.00000000E+00  0.00000000E+00
  0.00000000E+00  0.00000000E+00  0.00000000E+00
  0.00000000E+00  0.00000000E+00  0.00000000E+00
  0.00000000E+00  0.00000000E+00  0.00000000E+00
  0.00000000E+00  0.00000000E+00  0.00000000E+00
  0.00000000E+00  0.00000000E+00  0.00000000E+00
  0.00000000E+00  0.00000000E+00  0.00000000E+00
  0.00000000E+00  0.00000000E+00  0.00000000E+00
  0.00000000E+00  0.00000000E+00  0.00000000E+00
  0.00000000E+00  0.00000000E+00  0.00000000E+00
  0.00000000E+00  0.00000000E+00  0.00000000E+00
  0.00000000E+00  0.00000000E+00  0.00000000E+00
  0.00000000E+00  0.00000000E+00  0.00000000E+00
  0.00000000E+00  0.00000000E+00  0.00000000E+00
  0.00000000E+00  0.00000000E+00  0.00000000E+00
  0.00000000E+00  0.00000000E+00  0.00000000E+00
  0.00000000E+00  0.00000000E+00  0.00000000E+00
  0.00000000E+00  0.00000000E+00  0.00000000E+00
  0.00000000E+00  0.00000000E+00  0.00000000E+00
  0.00000000E+00  0.00000000E+00  0.00000000E+00
  0.00000000E+00  0.00000000E+00  0.00000000E+00
  0.00000000E+00  0.00000000E+00  0.00000000E+00
  0.00000000E+00  0.00000000E+00  0.00000000E+00
  0.00000000E+00  0.00000000E+00  0.00000000E+00
  0.00000000E+00  0.00000000E+00  0.00000000E+00
  0.00000000E+00  0.00000000E+00  0.00000000E+00
  0.00000000E+00  0.00000000E+00  0.00000000E+00
  0.00000000E+00  0.00000000E+00  0.00000000E+00
  0.00000000E+00  0.00000000E+00  0.00000000E+00
  0.00000000E+00  0.00000000E+00  0.00000000E+00
  0.00000000E+00  0.00000000E+00  0.00000000E+00
  0.00000000E+00  0.00000000E+00  0.00000000E+00
  0.00000000E+00  0.00000000E+00  0.00000000E+00
