 H  C  O Cu 
 1.0000000000000000
    10.2710469276006560    0.0000000000000000    0.0000000000000006
     2.5677617319001635    6.2897060242006209    0.0000000000000005
     0.0000000000000000    0.0000000000000000   30.0000000000000000
 H   C   O   Cu 
   4   2   2  48
Selective dynamics
Cartesian
  4.3944521382909798  2.5384529536371456  8.2790776018391892   T   T   T
  6.9054021275820077  6.0462497531719190  8.6197137725991730   T   T   T
  5.9361791820658345  0.2434562710287018 21.3773366784298631   T   T   T
  8.4385869236005693  3.7521689059364429 21.7223151337260312   T   T   T
  8.4549721726817353  5.5138482232645858 20.9720614595089820   T   T   T
  4.3842550680159720  0.7753315824407144  9.0265149436056049   T   T   T
  4.3510231820593139  1.6070723436265650  7.9956127442667269   T   T   T
  8.4853002134189843  4.6833800585840235 22.0043872557332740   T   T   T
  1.9330444685427624  1.0602412962949672 10.9555571190001011   T   T   T
  7.0646509175024201  1.0701312043443461 10.9561680596686664   T   T   T
  9.6278685583340433  1.0753221637382142 10.9663941205981796   T   T   T
  4.4984962119077920  1.0758815988066059 10.8941357388463853   T   T   T
  8.3468793032040089  3.1564993431839974 11.6369397014519080   T   T   T
 10.9133765073696800  3.1562888258605089 11.6362535523626285   T   T   T
  3.2048015301899615  3.1636835645804542 11.6642380451042875   T   T   T
  5.7876723389680524  3.1608710771883315 11.6681779614131784   T   T   T
  4.4929697725668198  3.1432244684450890 13.8876939271625339   F   F   F
  7.0607315044669843  3.1432244684450890 13.8876939271625339   F   F   F
  1.9252080406666567  3.1432244684450890 13.8876939271625339   F   F   F
  9.6284932363671469  3.1432244684450890 13.8876939271625339   F   F   F
  5.7768506385168834  5.2397931431786438 14.6289428907261971   F   F   F
  3.2090889066167203  5.2397931431786438 14.6289428907261971   F   F   F
 10.9123741023172123  5.2397931431786438 14.6289428907261971   F   F   F
  8.3446123704170478  5.2397931431786438 14.6289428907261971   F   F   F
  7.0630506596613714  5.2362284362738221 12.3646061812622960   T   T   T
  9.6313958181725994  5.2351993838662345 12.3398380164252295   T   T   T
  4.4953423644039860  5.2354989569918686 12.3430493391793590   T   T   T
 12.1980095027991116  5.2367950783905597 12.3363602981938278   T   T   T
  3.2090889066167572  1.0466557937115337 13.1464449635988707   F   F   F
  5.7768506385169207  1.0466557937115337 13.1464449635988707   F   F   F
  0.6413271747165930  1.0466557937115337 13.1464449635988672   F   F   F
  8.3446123704170851  1.0466557937115337 13.1464449635988707   F   F   F
  8.3446123704170656  3.1432244684450890 16.1114408178536657   F   F   F
 10.9123741023172300  3.1432244684450890 16.1114408178536657   F   F   F
  3.2090889066167385  3.1432244684450890 16.1114408178536657   F   F   F
  5.7768506385169029  3.1432244684450890 16.1114408178536657   F   F   F
  4.4929697725668385  1.0466557937115337 15.3701918542900025   F   F   F
  1.9252080406666749  1.0466557937115337 15.3701918542900025   F   F   F
  7.0607315044670020  1.0466557937115337 15.3701918542900025   F   F   F
  9.6284932363671665  1.0466557937115337 15.3701918542900025   F   F   F
  7.0607315044669656  5.2397931431786438 16.8526897814173289   F   F   F
  9.6284932363671292  5.2397931431786438 16.8526897814173289   F   F   F
 12.1962549682672936  5.2397931431786438 16.8526897814173289   F   F   F
  4.4929697725668021  5.2397931431786438 16.8526897814173289   F   F   F
  5.7745409965420142  1.0503613428489706 17.6346438351904702   T   T   T
  3.2062972332949813  1.0514366883949315 17.6595202769603468   T   T   T
  0.6396187901151943  1.0500196499636723 17.6626809103825622   T   T   T
  8.3424492988903420  1.0510479501946370 17.6561132952878630   T   T   T
  5.7730605075028807  5.2166147476271343 19.0429166784438557   T   T   T
  3.2097294772575058  5.2118128211982864 19.0329905933573329   T   T   T
 10.9042297883551882  5.2262776173897985 19.0436718463135719   T   T   T
  8.3389368413850331  5.2108642625214801 19.1050851655402418   T   T   T
  1.9243043638728567  3.1303744090680476 18.3630107690468840   T   T   T
  4.4908483637668306  3.1303136801035905 18.3623303994849572   T   T   T
  7.0499177482698334  3.1254791165557876 18.3309211902071745   T   T   T
  9.6327038525559452  3.1229561368745880 18.3350288828868671   T   T   T
