 H  C  O                                
   1.00000000000000     
    10.0000000000000000    0.0000000000000000    0.0000000000000000
     0.0000000000000000   10.0000000000000000    0.0000000000000000
     0.0000000000000000    0.0000000000000000   10.0000000000000000
   H    C    O 
     2     1     1
Direct
  0.3765096611875433  0.4943656048283853  0.4465472606251580
  0.6279736945400139  0.5034980606527473  0.5563861656368736
  0.5632025986008294  0.5044439365672316  0.4651953861210669
  0.4421975904575917  0.4948728399425348  0.5183149163192707
 
  0.00000000E+00  0.00000000E+00  0.00000000E+00
  0.00000000E+00  0.00000000E+00  0.00000000E+00
  0.00000000E+00  0.00000000E+00  0.00000000E+00
  0.00000000E+00  0.00000000E+00  0.00000000E+00
