 H  C  O 
 1.0000000000000000
    10.0000000000000000    0.0000000000000000    0.0000000000000000
     0.0000000000000000   10.0000000000000000    0.0000000000000000
     0.0000000000000000    0.0000000000000000   10.0000000000000000
 H   C   O  
   2   1   1
Cartesian
  3.9212170798186130  4.9410608410222370  4.4523683708407713
  6.0787829201813883  5.0148004697688062  5.5476316291592287
  5.6242555381803125  5.0589391589777630  4.5245306715768585
  4.4745799096793890  4.9570039501402121  5.3399066154468411
