Cu 
 1.0000000000000000
    10.2710469276006560    0.0000000000000000    0.0000000000000006
     2.5677617319001635    6.2897060242006209    0.0000000000000005
     0.0000000000000000    0.0000000000000000   30.00000000000000005
 Cu 
  48
Selective dynamics
Cartesian
  7.1999999999999558  5.2210283680692617 18.1605996073103348   F   F   F
  9.7677617319001193  5.2210283680692617 18.1605996073103348   F   F   F
 12.3355234638002837  5.2210283680692617 18.1605996073103348   F   F   F
  4.6322382680997922  5.2210283680692617 18.1605996073103348   F   F   F
  7.2010733170670491  3.1198556143643814 19.6699055530261333   T   T   T
  9.7688327925804419  3.1198544124586078 19.6699067788761432   T   T   T
  2.0655507683547265  3.1198552145103045 19.6699070404062191   T   T   T
  4.6333104850344471  3.1198554548974391 19.6699068051441017   T   T   T
  8.4848603032590439  1.0423077588010847 18.9631891243107802   T   T   T
  0.7815746002571239  1.0423070147590150 18.9631890639040641   T   T   T
  3.3493375044466087  1.0423078497723113 18.9631876959363090   T   T   T
  5.9170976784923601  1.0423074096986127 18.9631876889397795   T   T   T
  8.4842945879283072  5.2157121078276072 20.3381293432777213   T   T   T
 11.0520570149645412  5.2157108027998751 20.3381299296233955   T   T   T
  3.3487711488589862  5.2157107428932878 20.3381288409043322   T   T   T
  5.9165322649407308  5.2157115669111187 20.3381277389558655   T   T   T
  9.7677617319001371  3.1244596933357065 15.1956037530557229   F   F   F
  2.0644765361996460  3.1244596933357065 15.1956037530557229   F   F   F
  4.6322382680998100  3.1244596933357065 15.1956037530557229   F   F   F
  7.1999999999999735  3.1244596933357065 15.1956037530557229   F   F   F
  9.7677617319001566  1.0278910186021515 16.6781016801829125   F   F   F
  2.0644765361996646  1.0278910186021515 16.6781016801829125   F   F   F
  4.6322382680998277  1.0278910186021515 16.6781016801829125   F   F   F
  7.1999999999999922  1.0278910186021515 16.6781016801829125   F   F   F
  8.4838808659500380  5.2210283680692617 15.9368527166194358   F   F   F
 11.0516425978502024  5.2210283680692617 15.9368527166194358   F   F   F
  3.3483574021497096  5.2210283680692617 15.9368527166194358   F   F   F
  5.9161191340498736  5.2210283680692617 15.9368527166194358   F   F   F
  8.4838808659500557  3.1244596933357065 17.4193506437466255   F   F   F
 11.0516425978502202  3.1244596933357065 17.4193506437466255   F   F   F
  3.3483574021497282  3.1244596933357065 17.4193506437466255   F   F   F
  5.9161191340498913  3.1244596933357065 17.4193506437466255   F   F   F
  7.1995526169165647  1.0331095003602677 12.2769005678281058   T   T   T
  9.7673142679644371  1.0331089699437577 12.2768994860675740   T   T   T
  2.0640289478191045  1.0331086726249550 12.2768984137727823   T   T   T
  4.6317895278373840  1.0331094242326881 12.2769000147596010   T   T   T
  9.7666560176878097  5.2070416009706282 13.6517070365741464   T   T   T
 12.3344176586624759  5.2070419791801292 13.6517057073539458   T   T   T
  4.6311332467877326  5.2070427058164235 13.6517056014335729   T   T   T
  7.1988936220188480  5.2070424239585060 13.6517058551889772   T   T   T
  8.4833034808128502  3.1287011966513045 12.9449273679642829   T   T   T
 11.0510671209002282  3.1287003908309305 12.9449278851079637   T   T   T
  3.3477793179765665  3.1287000348199285 12.9449274982023645   T   T   T
  5.9155433557053092  3.1287017035393090 12.9449278044211908   T   T   T
  5.9161191340499100  1.0278910186021515 14.4543547894920135   F   F   F
  8.4838808659500753  1.0278910186021515 14.4543547894920135   F   F   F
  0.7805956702495824  1.0278910186021515 14.4543547894920117   F   F   F
  3.3483574021497464  1.0278910186021515 14.4543547894920117   F   F   F
