 H  C Cu                                
   1.00000000000000     
    10.2710469276006560    0.0000000000000000    0.0000000000000006
     2.5677617319001635    6.2897060242006209    0.0000000000000005
     0.0000000000000000    0.0000000000000000   30.0000000000000000
   H    C    Cu
     2     2    48
Selective dynamics
Direct
  0.2050648043451703  0.3829327141475350  0.2972706904146766   T   T   T
  0.7906230724902592  0.6244790829143084  0.7027052118727017   T   T   T
  0.2246297199022237  0.3265234045330455  0.3318455538540641   T   T   T
  0.7730758127166328  0.6770646992653006  0.6678321636458231   T   T   T
  0.1391820995173218  0.1610560294857750  0.3632793346171238   T   T   T
  0.3978971557672408  0.1710392059676815  0.3627966155298236   T   T   T
  0.6453379907536391  0.1693603766281365  0.3655363187779990   T   T   T
  0.8914119569414454  0.1697445495984773  0.3656253256139513   T   T   T
  0.2291522354428164  0.8331567231612064  0.4121616955315364   T   T   T
  0.7297579805218022  0.8307432044322997  0.4108752948317403   T   T   T
  0.9791186191192032  0.8337527143640593  0.4113345192100857   T   T   T
  0.4799365277229627  0.8338558278002943  0.4109584323706649   T   T   T
  0.6871526813233786  0.5007307042422112  0.3871957866858974   T   T   T
  0.9357597899853634  0.5002547313231933  0.3876027930410394   T   T   T
  0.1843803125848920  0.5131969717012635  0.3840347286165418   T   T   T
  0.4388860136850923  0.5021063593878121  0.3883329252918836   T   T   T
  0.3125227806840485  0.4999886977673142  0.4626631437468376   F   F   F
  0.0625227806840485  0.4999886977673142  0.4626631437468376   F   F   F
  0.5625227806840485  0.4999886977673142  0.4626631437468376   F   F   F
  0.8125227806840485  0.4999886977673142  0.4626631437468376   F   F   F
  0.3541894473507128  0.8333220311006500  0.4873714425322930   F   F   F
  0.1041894473507128  0.8333220311006500  0.4873714425322930   F   F   F
  0.8541894473507128  0.8333220311006500  0.4873714425322930   F   F   F
  0.6041894473507128  0.8333220311006500  0.4873714425322930   F   F   F
  0.8958561140173842  0.1666553644339785  0.5120797413177414   F   F   F
  0.1458561140173842  0.1666553644339785  0.5120797413177414   F   F   F
  0.3958561140173842  0.1666553644339785  0.5120797413177414   F   F   F
  0.6458561140173842  0.1666553644339785  0.5120797413177414   F   F   F
  0.2708561140173842  0.1666553644339785  0.4379548449613822   F   F   F
  0.5208561140173842  0.1666553644339785  0.4379548449613822   F   F   F
  0.0208561140173842  0.1666553644339785  0.4379548449613822   F   F   F
  0.7708561140173842  0.1666553644339785  0.4379548449613822   F   F   F
  0.6875227806840485  0.4999886977673142  0.5367880401031968   F   F   F
  0.9375227806840485  0.4999886977673142  0.5367880401031968   F   F   F
  0.1875227806840485  0.4999886977673142  0.5367880401031968   F   F   F
  0.4375227806840485  0.4999886977673142  0.5367880401031968   F   F   F
  0.4791894473507128  0.8333220311006500  0.5614963388886594   F   F   F
  0.7291894473507128  0.8333220311006500  0.5614963388886594   F   F   F
  0.9791894473507128  0.8333220311006500  0.5614963388886594   F   F   F
  0.2291894473507128  0.8333220311006500  0.5614963388886594   F   F   F
  0.3130565024290249  0.4997430956871600  0.6123003853047596   T   T   T
  0.0645648251205108  0.5000556946633551  0.6117986220011237   T   T   T
  0.8157545401726629  0.4877482036176391  0.6159606495095487   T   T   T
  0.5613892192338024  0.4988336535556573  0.6111768835049248   T   T   T
  0.5201844519951475  0.1672769264213826  0.5883226856686370   T   T   T
  0.2705987399819981  0.1694393216252819  0.5885772682279744   T   T   T
  0.0208503759974952  0.1669773198547327  0.5881806040548782   T   T   T
  0.7711236619163961  0.1674337503146812  0.5873841407056167   T   T   T
  0.3543421247955863  0.8312675083652890  0.6339376021144789   T   T   T
  0.1084275570497080  0.8308580234809928  0.6337882158435346   T   T   T
  0.8607516083151737  0.8390527169368865  0.6361989315752501   T   T   T
  0.6008543077807220  0.8319219167046679  0.6365136982386291   T   T   T
 
  0.00000000E+00  0.00000000E+00  0.00000000E+00
  0.00000000E+00  0.00000000E+00  0.00000000E+00
  0.00000000E+00  0.00000000E+00  0.00000000E+00
  0.00000000E+00  0.00000000E+00  0.00000000E+00
  0.00000000E+00  0.00000000E+00  0.00000000E+00
  0.00000000E+00  0.00000000E+00  0.00000000E+00
  0.00000000E+00  0.00000000E+00  0.00000000E+00
  0.00000000E+00  0.00000000E+00  0.00000000E+00
  0.00000000E+00  0.00000000E+00  0.00000000E+00
  0.00000000E+00  0.00000000E+00  0.00000000E+00
  0.00000000E+00  0.00000000E+00  0.00000000E+00
  0.00000000E+00  0.00000000E+00  0.00000000E+00
  0.00000000E+00  0.00000000E+00  0.00000000E+00
  0.00000000E+00  0.00000000E+00  0.00000000E+00
  0.00000000E+00  0.00000000E+00  0.00000000E+00
  0.00000000E+00  0.00000000E+00  0.00000000E+00
  0.00000000E+00  0.00000000E+00  0.00000000E+00
  0.00000000E+00  0.00000000E+00  0.00000000E+00
  0.00000000E+00  0.00000000E+00  0.00000000E+00
  0.00000000E+00  0.00000000E+00  0.00000000E+00
  0.00000000E+00  0.00000000E+00  0.00000000E+00
  0.00000000E+00  0.00000000E+00  0.00000000E+00
  0.00000000E+00  0.00000000E+00  0.00000000E+00
  0.00000000E+00  0.00000000E+00  0.00000000E+00
  0.00000000E+00  0.00000000E+00  0.00000000E+00
  0.00000000E+00  0.00000000E+00  0.00000000E+00
  0.00000000E+00  0.00000000E+00  0.00000000E+00
  0.00000000E+00  0.00000000E+00  0.00000000E+00
  0.00000000E+00  0.00000000E+00  0.00000000E+00
  0.00000000E+00  0.00000000E+00  0.00000000E+00
  0.00000000E+00  0.00000000E+00  0.00000000E+00
  0.00000000E+00  0.00000000E+00  0.00000000E+00
  0.00000000E+00  0.00000000E+00  0.00000000E+00
  0.00000000E+00  0.00000000E+00  0.00000000E+00
  0.00000000E+00  0.00000000E+00  0.00000000E+00
  0.00000000E+00  0.00000000E+00  0.00000000E+00
  0.00000000E+00  0.00000000E+00  0.00000000E+00
  0.00000000E+00  0.00000000E+00  0.00000000E+00
  0.00000000E+00  0.00000000E+00  0.00000000E+00
  0.00000000E+00  0.00000000E+00  0.00000000E+00
  0.00000000E+00  0.00000000E+00  0.00000000E+00
  0.00000000E+00  0.00000000E+00  0.00000000E+00
  0.00000000E+00  0.00000000E+00  0.00000000E+00
  0.00000000E+00  0.00000000E+00  0.00000000E+00
  0.00000000E+00  0.00000000E+00  0.00000000E+00
  0.00000000E+00  0.00000000E+00  0.00000000E+00
  0.00000000E+00  0.00000000E+00  0.00000000E+00
  0.00000000E+00  0.00000000E+00  0.00000000E+00
  0.00000000E+00  0.00000000E+00  0.00000000E+00
  0.00000000E+00  0.00000000E+00  0.00000000E+00
  0.00000000E+00  0.00000000E+00  0.00000000E+00
  0.00000000E+00  0.00000000E+00  0.00000000E+00
