 H  C  O Cu                             
   1.00000000000000     
    10.2710469276006560    0.0000000000000000    0.0000000000000006
     2.5677617319001635    6.2897060242006209    0.0000000000000005
     0.0000000000000000    0.0000000000000000   20.0000000000000000
   H    C    O    Cu
     2     2     2    48
Selective dynamics
Direct
  0.4345445565785886  0.0005984072179324  0.1732428214164626   T   T   T
  0.5654499482710829  0.9994192803902995  0.8267773683416111   T   T   T
  0.6070295268335034  0.8368179432668875  0.8045491225387114   T   T   T
  0.3929564162187478  0.1632006782696961  0.1954680341962391   T   T   T
  0.3534494529692372  0.3165078923645220  0.1581937933881055   T   T   T
  0.6465268923637194  0.6835152314561250  0.8418269345050936   T   T   T
  0.1451641120692264  0.1680093432147810  0.2981443563230275   T   T   T
  0.6448984569694211  0.1688674691273488  0.2982818614389662   T   T   T
  0.4791721738682370  0.8326316479687121  0.3678437605715965   T   T   T
  0.7292737733066174  0.8314783503443735  0.3675597585782439   T   T   T
  0.8950513152806485  0.1689093731300667  0.2985050483168671   T   T   T
  0.3949962147597075  0.1677136512874343  0.2939306375968847   T   T   T
  0.6868682561364494  0.5011625291858520  0.3319331790948031   T   T   T
  0.9369810366203505  0.5009495965247857  0.3320419471401819   T   T   T
  0.1863226650175017  0.5016313444491932  0.3331891796250474   T   T   T
  0.4371882067119408  0.5014210538598447  0.3332553630837987   T   T   T
  0.3125000000000000  0.5000000000000000  0.4444063277327217   F   F   F
  0.5625000000000000  0.5000000000000000  0.4444063277327217   F   F   F
  0.0625000000000000  0.5000000000000000  0.4444063277327217   F   F   F
  0.8125000000000000  0.5000000000000000  0.4444063277327217   F   F   F
  0.3541666666666643  0.8333333333333357  0.4814687759109049   F   F   F
  0.1041666666666643  0.8333333333333357  0.4814687759109049   F   F   F
  0.8541666666666643  0.8333333333333357  0.4814687759109049   F   F   F
  0.6041666666666643  0.8333333333333357  0.4814687759109049   F   F   F
  0.8958333333333357  0.1666666666666643  0.5185312240890951   F   F   F
  0.6458333333333357  0.1666666666666643  0.5185312240890951   F   F   F
  0.2291899119274749  0.8315839049838105  0.3672118850109561   T   T   T
  0.9793601104992223  0.8317011803554135  0.3670645802823337   T   T   T
  0.2708333333333357  0.1666666666666643  0.4073438795545385   F   F   F
  0.5208333333333357  0.1666666666666643  0.4073438795545385   F   F   F
  0.0208333333333357  0.1666666666666643  0.4073438795545385   F   F   F
  0.7708333333333357  0.1666666666666643  0.4073438795545385   F   F   F
  0.6875000000000000  0.5000000000000000  0.5555936722672783   F   F   F
  0.9375000000000000  0.5000000000000000  0.5555936722672783   F   F   F
  0.1875000000000000  0.5000000000000000  0.5555936722672783   F   F   F
  0.4375000000000000  0.5000000000000000  0.5555936722672783   F   F   F
  0.3958333333333357  0.1666666666666643  0.5185312240890951   F   F   F
  0.1458333333333357  0.1666666666666643  0.5185312240890951   F   F   F
  0.4791666666666643  0.8333333333333357  0.5926561204454615   F   F   F
  0.7291666666666643  0.8333333333333357  0.5926561204454615   F   F   F
  0.8136722870319997  0.4983763692351487  0.6668122140354638   T   T   T
  0.5628101040019415  0.4985849064464745  0.6667461320034157   T   T   T
  0.9791666666666643  0.8333333333333357  0.5926561204454615   F   F   F
  0.2291666666666643  0.8333333333333357  0.5926561204454615   F   F   F
  0.5208307556530950  0.1673608995827723  0.6321588229216571   T   T   T
  0.2707264332023167  0.1685210605417389  0.6324381663805627   T   T   T
  0.0206374693438665  0.1683015675252921  0.6329337541791283   T   T   T
  0.7708097238901146  0.1684186430217270  0.6327868924998782   T   T   T
  0.3550992183892764  0.8311393713391150  0.7017203767904465   T   T   T
  0.1049455701510673  0.8310968379429086  0.7014962847367048   T   T   T
  0.8548296970307596  0.8319970461569132  0.7018585188407785   T   T   T
  0.6050011157277732  0.8322931796069386  0.7060826145052486   T   T   T
  0.0630168755414608  0.4990549524888359  0.6679587745357488   T   T   T
  0.3131303419918633  0.4988420144697756  0.6680677682747845   T   T   T
 
  0.00000000E+00  0.00000000E+00  0.00000000E+00
  0.00000000E+00  0.00000000E+00  0.00000000E+00
  0.00000000E+00  0.00000000E+00  0.00000000E+00
  0.00000000E+00  0.00000000E+00  0.00000000E+00
  0.00000000E+00  0.00000000E+00  0.00000000E+00
  0.00000000E+00  0.00000000E+00  0.00000000E+00
  0.00000000E+00  0.00000000E+00  0.00000000E+00
  0.00000000E+00  0.00000000E+00  0.00000000E+00
  0.00000000E+00  0.00000000E+00  0.00000000E+00
  0.00000000E+00  0.00000000E+00  0.00000000E+00
  0.00000000E+00  0.00000000E+00  0.00000000E+00
  0.00000000E+00  0.00000000E+00  0.00000000E+00
  0.00000000E+00  0.00000000E+00  0.00000000E+00
  0.00000000E+00  0.00000000E+00  0.00000000E+00
  0.00000000E+00  0.00000000E+00  0.00000000E+00
  0.00000000E+00  0.00000000E+00  0.00000000E+00
  0.00000000E+00  0.00000000E+00  0.00000000E+00
  0.00000000E+00  0.00000000E+00  0.00000000E+00
  0.00000000E+00  0.00000000E+00  0.00000000E+00
  0.00000000E+00  0.00000000E+00  0.00000000E+00
  0.00000000E+00  0.00000000E+00  0.00000000E+00
  0.00000000E+00  0.00000000E+00  0.00000000E+00
  0.00000000E+00  0.00000000E+00  0.00000000E+00
  0.00000000E+00  0.00000000E+00  0.00000000E+00
  0.00000000E+00  0.00000000E+00  0.00000000E+00
  0.00000000E+00  0.00000000E+00  0.00000000E+00
  0.00000000E+00  0.00000000E+00  0.00000000E+00
  0.00000000E+00  0.00000000E+00  0.00000000E+00
  0.00000000E+00  0.00000000E+00  0.00000000E+00
  0.00000000E+00  0.00000000E+00  0.00000000E+00
  0.00000000E+00  0.00000000E+00  0.00000000E+00
  0.00000000E+00  0.00000000E+00  0.00000000E+00
  0.00000000E+00  0.00000000E+00  0.00000000E+00
  0.00000000E+00  0.00000000E+00  0.00000000E+00
  0.00000000E+00  0.00000000E+00  0.00000000E+00
  0.00000000E+00  0.00000000E+00  0.00000000E+00
  0.00000000E+00  0.00000000E+00  0.00000000E+00
  0.00000000E+00  0.00000000E+00  0.00000000E+00
  0.00000000E+00  0.00000000E+00  0.00000000E+00
  0.00000000E+00  0.00000000E+00  0.00000000E+00
  0.00000000E+00  0.00000000E+00  0.00000000E+00
  0.00000000E+00  0.00000000E+00  0.00000000E+00
  0.00000000E+00  0.00000000E+00  0.00000000E+00
  0.00000000E+00  0.00000000E+00  0.00000000E+00
  0.00000000E+00  0.00000000E+00  0.00000000E+00
  0.00000000E+00  0.00000000E+00  0.00000000E+00
  0.00000000E+00  0.00000000E+00  0.00000000E+00
  0.00000000E+00  0.00000000E+00  0.00000000E+00
  0.00000000E+00  0.00000000E+00  0.00000000E+00
  0.00000000E+00  0.00000000E+00  0.00000000E+00
  0.00000000E+00  0.00000000E+00  0.00000000E+00
  0.00000000E+00  0.00000000E+00  0.00000000E+00
  0.00000000E+00  0.00000000E+00  0.00000000E+00
  0.00000000E+00  0.00000000E+00  0.00000000E+00
