 C  O Cu 
 1.0000000000000000
    10.2710469276006560    0.0000000000000000    0.0000000000000006
     2.5677617319001635    6.2897060242006209    0.0000000000000005
     0.0000000000000000    0.0000000000000000   40.0000000000000000
 C   O   Cu 
   4   4  48
Selective dynamics
Cartesian
  2.2152774092253900  0.9289057305033092 13.9984708749159346   T   T   T
  4.0837674524410668  0.9775691962172602 13.9835972377856539   T   T   T
  8.7166820552148749  5.3261903753453081 26.0221954851939259   T   T   T
 10.5848647683550130  5.3580648822627257 26.0182567628345716   T   T   T
  1.6800038535983026  0.8916412100908906 12.9153127984318719   T   T   T
  4.5734950856942227  1.0134881845274537 12.8781507422735793   T   T   T
  8.2138573761702656  5.3249447117050668 27.1218492577264207   T   T   T
 11.1082317274492262  5.3980648141097305 27.1069495433049887   T   T   T
  1.7920424716358763  1.0612401077758733 15.8917639316329566   T   T   T
  4.5782277855118414  1.0658980885757530 15.8656259428894675   T   T   T
  7.0881035066751883  1.1061914582593708 15.9854481288578985   T   T   T
  9.5690888468111677  1.1036863775015304 15.9902841475511472   T   T   T
  8.3344339689555689  3.1818924393461856 16.6466672223695120   T   T   T
 10.8992519595617967  3.1660966514019746 16.6618116918883743   T   T   T
  3.1969517895651269  3.1316766963977796 16.6693807637119704   T   T   T
  5.7642309251523365  3.1659938391865925 16.6635247738773131   T   T   T
  4.4915091334241222  3.1363232826175826 18.8956644623057883   F   F   F
  1.9237474015239577  3.1363232826175826 18.8956644623057883   F   F   F
  7.0592708653242857  3.1363232826175826 18.8956644623057883   F   F   F
  9.6270325972244493  3.1363232826175826 18.8956644623057883   F   F   F
  5.7753899993741857  5.2328919573511383 19.6369134258695013   F   F   F
  3.2076282674740213  5.2328919573511383 19.6369134258695013   F   F   F
 10.9109134631745146  5.2328919573511383 19.6369134258695013   F   F   F
  8.3431517312743502  5.2328919573511383 19.6369134258695013   F   F   F
  4.4856447413668246  5.2437351895918214 17.3336886986626375   T   T   T
  9.6201958559615388  5.2440543700410167 17.3305230382833884   T   T   T
 12.1953237128487668  5.2342071726553741 17.3315165786260437   T   T   T
  7.0471144198686551  5.2504218145495702 17.3350110483171207   T   T   T
  3.2076282674740582  1.0397546078840278 18.1544154987420754   F   F   F
  5.7753899993742221  1.0397546078840278 18.1544154987420754   F   F   F
  0.6398665355738942  1.0397546078840278 18.1544154987420754   F   F   F
  8.3431517312743875  1.0397546078840278 18.1544154987420754   F   F   F
  8.3431517312743679  3.1363232826175826 21.1194113529966891   F   F   F
 10.9109134631745324  3.1363232826175826 21.1194113529966891   F   F   F
  3.2076282674740400  3.1363232826175826 21.1194113529966891   F   F   F
  5.7753899993742035  3.1363232826175826 21.1194113529966891   F   F   F
  7.0592708653243044  1.0397546078840278 20.3781623894329762   F   F   F
  4.4915091334241399  1.0397546078840278 20.3781623894329762   F   F   F
  1.9237474015239764  1.0397546078840278 20.3781623894329762   F   F   F
  9.6270325972244688  1.0397546078840278 20.3781623894329762   F   F   F
  7.0592708653242680  5.2328919573511383 21.8606603165603985   F   F   F
  9.6270325972244315  5.2328919573511383 21.8606603165603985   F   F   F
 12.1947943291245959  5.2328919573511383 21.8606603165603985   F   F   F
  4.4915091334241044  5.2328919573511383 21.8606603165603985   F   F   F
  5.7841951302786203  1.0235264121915886 22.6768294805963144   T   T   T
  3.2105251647119544  1.0290269885160908 22.6844630448011699   T   T   T
  0.6366671796246901  1.0388172964449183 22.6838932979096235   T   T   T
  8.3463961606583901  1.0285675655181483 22.6820804493508028   T   T   T
  5.7376352289428496  5.1656189258809482 24.0291501398953002   T   T   T
  3.2574209914525594  5.1692768197956536 24.0251025635590238   T   T   T
 11.0323183653738539  5.2119032756912089 24.1310853371029665   T   T   T
  8.2443826044063631  5.2089964064264329 24.1381706706346364   T   T   T
  7.0649838759021222  3.1054065534757069 23.3511688787887230   T   T   T
  9.6328824240080699  3.1411958678096901 23.3460022876869182   T   T   T
  1.9290136125342956  3.1081018593652261 23.3541719989999734   T   T   T
  4.4937447162387887  3.0909623354793352 23.3683468928601918   T   T   T
