 H  C  O Cu                             
   1.00000000000000     
    10.2710469276006560    0.0000000000000000    0.0000000000000006
     2.5677617319001635    6.2897060242006209    0.0000000000000005
     0.0000000000000000    0.0000000000000000   32.6149543968023465
   H    C    O    Cu
     2     4     4    48
Selective dynamics
Direct
  0.2027140334963438  0.1679516410278437  0.2616742533418615   T   T   T
  0.8258964914575087  0.8255358943310561  0.7383232597444950   T   T   T
  0.8159285749059781  0.8243866534437053  0.6792608033161861   T   T   T
  0.2126503803702612  0.1691256396152126  0.3207371604297900   T   T   T
  0.6745851995607506  0.8259225963369822  0.6835089695725665   T   T   T
  0.3540227583826022  0.1675233021615908  0.3164916243091380   T   T   T
  0.1436363591525048  0.1625312516441113  0.2847874968520774   T   T   T
  0.4128952170341024  0.1592206694162091  0.2822064694669813   T   T   T
  0.6156998213291962  0.8342008408327387  0.7177956633345914   T   T   T
  0.8849570430218241  0.8309870944359788  0.7152094100288879   T   T   T
  0.1483240987925390  0.1636803999158087  0.3749766797302719   T   T   T
  0.4176486604458002  0.1643422805182178  0.3731313478601114   T   T   T
  0.6993948101559442  0.5020444977383309  0.3967744216441030   T   T   T
  0.9492734915914129  0.4996552076173165  0.3977827253242607   T   T   T
  0.6599823487795871  0.1702396296194550  0.3766464190593860   T   T   T
  0.9027317340407178  0.1693052135011588  0.3769560096116967   T   T   T
  0.3268102038023102  0.4967576674194092  0.4659090909090935   F   F   F
  0.0768102038023102  0.4967576674194092  0.4659090909090935   F   F   F
  0.5768102038023102  0.4967576674194092  0.4659090909090935   F   F   F
  0.8268102038023102  0.4967576674194092  0.4659090909090935   F   F   F
  0.3684768704689745  0.8300910007527449  0.4886363636363669   F   F   F
  0.1184768704689745  0.8300910007527449  0.4886363636363669   F   F   F
  0.2017358419551429  0.4950833244852710  0.3973046201543863   T   T   T
  0.4511951822370721  0.4983177505547655  0.3976834089174644   T   T   T
  0.2431203532256936  0.8294021110877015  0.4187029181410852   T   T   T
  0.7430078664578434  0.8302814272960456  0.4181979371074232   T   T   T
  0.9942826656100825  0.8288295766511804  0.4180817617018716   T   T   T
  0.4924816616980705  0.8315252178249155  0.4186019664539947   T   T   T
  0.2851435371356459  0.1634243340860735  0.4431818181818201   F   F   F
  0.5351435371356459  0.1634243340860735  0.4431818181818201   F   F   F
  0.0351435371356459  0.1634243340860735  0.4431818181818201   F   F   F
  0.7851435371356459  0.1634243340860735  0.4431818181818201   F   F   F
  0.7018102038023102  0.4967576674194092  0.5340909090909065   F   F   F
  0.9518102038023102  0.4967576674194092  0.5340909090909065   F   F   F
  0.2018102038023102  0.4967576674194092  0.5340909090909065   F   F   F
  0.4518102038023102  0.4967576674194092  0.5340909090909065   F   F   F
  0.6601435371356459  0.1634243340860735  0.5113636363636331   F   F   F
  0.4101435371356459  0.1634243340860735  0.5113636363636331   F   F   F
  0.1601435371356459  0.1634243340860735  0.5113636363636331   F   F   F
  0.9101435371356459  0.1634243340860735  0.5113636363636331   F   F   F
  0.6184768704689745  0.8300910007527449  0.4886363636363669   F   F   F
  0.8684768704689745  0.8300910007527449  0.4886363636363669   F   F   F
  0.4934768704689745  0.8300910007527449  0.5568181818181799   F   F   F
  0.7434768704689745  0.8300910007527449  0.5568181818181799   F   F   F
  0.5360941155167173  0.1619462386039897  0.5814028966205881   T   T   T
  0.2855642020055068  0.1632390779628098  0.5818121470452291   T   T   T
  0.9934768704689745  0.8300910007527449  0.5568181818181799   F   F   F
  0.2434768704689745  0.8300910007527449  0.5568181818181799   F   F   F
  0.3685937773430215  0.8232400167154680  0.6233518553205517   T   T   T
  0.1258838508998224  0.8241704462625448  0.6230461803686835   T   T   T
  0.8802126535678444  0.8298871324711445  0.6250209400245196   T   T   T
  0.6109076703740781  0.8291319186910285  0.6268760843980388   T   T   T
  0.5774588902070306  0.4951397420374659  0.6023199275060975   T   T   T
  0.8269261845955461  0.4983968933673462  0.6026895536438618   T   T   T
  0.0793036385269365  0.4938992199610251  0.6022222861770886   T   T   T
  0.3291923020473380  0.4914635242437182  0.6032222309541220   T   T   T
  0.7854733916800565  0.1641139798373207  0.5812930345643921   T   T   T
  0.0343479360979248  0.1646663373369293  0.5819256699748196   T   T   T
 
  0.00000000E+00  0.00000000E+00  0.00000000E+00
  0.00000000E+00  0.00000000E+00  0.00000000E+00
  0.00000000E+00  0.00000000E+00  0.00000000E+00
  0.00000000E+00  0.00000000E+00  0.00000000E+00
  0.00000000E+00  0.00000000E+00  0.00000000E+00
  0.00000000E+00  0.00000000E+00  0.00000000E+00
  0.00000000E+00  0.00000000E+00  0.00000000E+00
  0.00000000E+00  0.00000000E+00  0.00000000E+00
  0.00000000E+00  0.00000000E+00  0.00000000E+00
  0.00000000E+00  0.00000000E+00  0.00000000E+00
  0.00000000E+00  0.00000000E+00  0.00000000E+00
  0.00000000E+00  0.00000000E+00  0.00000000E+00
  0.00000000E+00  0.00000000E+00  0.00000000E+00
  0.00000000E+00  0.00000000E+00  0.00000000E+00
  0.00000000E+00  0.00000000E+00  0.00000000E+00
  0.00000000E+00  0.00000000E+00  0.00000000E+00
  0.00000000E+00  0.00000000E+00  0.00000000E+00
  0.00000000E+00  0.00000000E+00  0.00000000E+00
  0.00000000E+00  0.00000000E+00  0.00000000E+00
  0.00000000E+00  0.00000000E+00  0.00000000E+00
  0.00000000E+00  0.00000000E+00  0.00000000E+00
  0.00000000E+00  0.00000000E+00  0.00000000E+00
  0.00000000E+00  0.00000000E+00  0.00000000E+00
  0.00000000E+00  0.00000000E+00  0.00000000E+00
  0.00000000E+00  0.00000000E+00  0.00000000E+00
  0.00000000E+00  0.00000000E+00  0.00000000E+00
  0.00000000E+00  0.00000000E+00  0.00000000E+00
  0.00000000E+00  0.00000000E+00  0.00000000E+00
  0.00000000E+00  0.00000000E+00  0.00000000E+00
  0.00000000E+00  0.00000000E+00  0.00000000E+00
  0.00000000E+00  0.00000000E+00  0.00000000E+00
  0.00000000E+00  0.00000000E+00  0.00000000E+00
  0.00000000E+00  0.00000000E+00  0.00000000E+00
  0.00000000E+00  0.00000000E+00  0.00000000E+00
  0.00000000E+00  0.00000000E+00  0.00000000E+00
  0.00000000E+00  0.00000000E+00  0.00000000E+00
  0.00000000E+00  0.00000000E+00  0.00000000E+00
  0.00000000E+00  0.00000000E+00  0.00000000E+00
  0.00000000E+00  0.00000000E+00  0.00000000E+00
  0.00000000E+00  0.00000000E+00  0.00000000E+00
  0.00000000E+00  0.00000000E+00  0.00000000E+00
  0.00000000E+00  0.00000000E+00  0.00000000E+00
  0.00000000E+00  0.00000000E+00  0.00000000E+00
  0.00000000E+00  0.00000000E+00  0.00000000E+00
  0.00000000E+00  0.00000000E+00  0.00000000E+00
  0.00000000E+00  0.00000000E+00  0.00000000E+00
  0.00000000E+00  0.00000000E+00  0.00000000E+00
  0.00000000E+00  0.00000000E+00  0.00000000E+00
  0.00000000E+00  0.00000000E+00  0.00000000E+00
  0.00000000E+00  0.00000000E+00  0.00000000E+00
  0.00000000E+00  0.00000000E+00  0.00000000E+00
  0.00000000E+00  0.00000000E+00  0.00000000E+00
  0.00000000E+00  0.00000000E+00  0.00000000E+00
  0.00000000E+00  0.00000000E+00  0.00000000E+00
  0.00000000E+00  0.00000000E+00  0.00000000E+00
  0.00000000E+00  0.00000000E+00  0.00000000E+00
  0.00000000E+00  0.00000000E+00  0.00000000E+00
  0.00000000E+00  0.00000000E+00  0.00000000E+00
