 H Cu 
 1.0000000000000000
    10.2710469276006560    0.0000000000000000    0.0000000000000006
     2.5677617319001635    6.2897060242006209    0.0000000000000005
     0.0000000000000000    0.0000000000000000   23.0000000000000000
 H   Cu 
   2  48
Selective dynamics
Cartesian
  3.1767932493377753  1.9603876836102736  6.6802558471014466   T   T   T
  9.6619156004337867  4.3289632937186164 16.3197441528985543   T   T   T
  1.9131704528301057  1.0598120319267139  7.4463844766893539   T   T   T
  7.0481730162953324  1.0682313141036746  7.4804396825921167   T   T   T
  8.3387737563123050  3.1546760384631187  8.1290390163277788   T   T   T
 10.8827327104303091  3.1566721409522329  8.1495227914808943   T   T   T
  9.6179564245163789  1.0538287978531236  7.4795369602309867   T   T   T
  4.4847587494627792  1.0870239026912871  7.4375310882824524   T   T   T
  7.0598969877156446  5.2488757938954116  8.8365222170364852   T   T   T
  9.6238941163158671  5.2366183566174538  8.8439826486646442   T   T   T
  4.4806482012543825  5.2276062447737326  8.8435172039167806   T   T   T
 12.1982836179031171  5.2191286769222156  8.8345903981357310   T   T   T
  3.2096560605648135  1.0483238502356536  9.6473755867072697   F   F   F
  5.7774177924649779  1.0483238502356536  9.6473755867072697   F   F   F
  3.1990055935540758  3.1586515334281491  8.0557317125333334   T   T   T
  5.7890822192954259  3.1668259600765611  8.1601641865866590   T   T   T
  4.4935369265148770  3.1448925249692090 10.3886245502709329   F   F   F
  7.0612986584150415  3.1448925249692090 10.3886245502709329   F   F   F
  1.9257751946147130  3.1448925249692090 10.3886245502709329   F   F   F
  9.6290603903152032  3.1448925249692090 10.3886245502709329   F   F   F
  5.7774177924649406  5.2414611997027638 11.1298735138345961   F   F   F
  3.2096560605647766  5.2414611997027638 11.1298735138345961   F   F   F
 10.9129412562652686  5.2414611997027638 11.1298735138345961   F   F   F
  8.3451795243651041  5.2414611997027638 11.1298735138345961   F   F   F
  9.6290603903152228  1.0483238502356536 11.8711224773984014   F   F   F
  7.0612986584150592  1.0483238502356536 11.8711224773984014   F   F   F
  1.9257751946147312  1.0483238502356536 11.8711224773984014   F   F   F
  4.4935369265148957  1.0483238502356536 11.8711224773984014   F   F   F
  5.7774177924649601  3.1448925249692090 12.6123714409620646   F   F   F
  3.2096560605647948  3.1448925249692090 12.6123714409620646   F   F   F
  0.6418943286646492  1.0483238502356536  9.6473755867072661   F   F   F
  8.3451795243651414  1.0483238502356536  9.6473755867072697   F   F   F
  8.3451795243651219  3.1448925249692090 12.6123714409620646   F   F   F
 10.9129412562652863  3.1448925249692090 12.6123714409620646   F   F   F
  7.0612986584150228  5.2414611997027638 13.3536204045257278   F   F   F
  9.6290603903151855  5.2414611997027638 13.3536204045257278   F   F   F
  5.7788041718520775  1.0408302303052095 14.1642675206665061   T   T   T
  3.2148608439328799  1.0530033860125660 14.1568496321572788   T   T   T
 12.1968221222153499  5.2414611997027638 13.3536204045257278   F   F   F
  4.4935369265148593  5.2414611997027638 13.3536204045257278   F   F   F
  9.6397189544893997  3.1310408758633446 14.9446775458130325   T   T   T
  7.0496056854563571  3.1227880476441086 14.8407937099480662   T   T   T
  4.4999507809965316  3.1349797333117730 14.8718157530343014   T   T   T
  1.9559860813918308  3.1329440074794292 14.8513307108230350   T   T   T
  8.3538254755319432  5.2027114318030003 15.5632117909028942   T   T   T
 10.9256770029237860  5.2298874276287490 15.5543597961662634   T   T   T
  0.6404640411690885  1.0704279273542090 14.1661826034483873   T   T   T
  8.3580188492391905  1.0620390636791024 14.1572666660237410   T   T   T
  5.7904902178984177  5.2213793134024122 15.5205429947208664   T   T   T
  3.2208037264063787  5.2357616558675311 15.5214451028919207   T   T   T
