 H  C  O Cu                             
   1.00000000000000     
    10.2710469276006560    0.0000000000000000    0.0000000000000006
     2.5677617319001635    6.2897060242006209    0.0000000000000005
     0.0000000000000000    0.0000000000000000   30.0000000000000000
   H    C    O    Cu
     2     2     4    48
Selective dynamics
Direct
  0.3503299483332974  0.1223732341877634  0.2375091260937172   T   T   T
  0.6495895798125649  0.8775134906889306  0.7624427372966741   T   T   T
  0.6668018307668607  0.8641649255574508  0.6984577935514278   T   T   T
  0.3331621656820023  0.1358347812074312  0.3014925810838391   T   T   T
  0.4068732253507672  0.1344139415239300  0.2629569015657411   T   T   T
  0.2157930709899650  0.1202215656769251  0.2959226951187966   T   T   T
  0.7841680382621140  0.8797683812069805  0.7040420222335577   T   T   T
  0.5930606526671275  0.8655205445975008  0.7369869001460746   T   T   T
  0.1379630296372268  0.1652265112904918  0.3646358474183151   T   T   T
  0.6458200226898481  0.1755765437912117  0.3660986942472365   T   T   T
  0.8893726613351206  0.1774059715083772  0.3658268794428232   T   T   T
  0.4004708643228755  0.1672692518887023  0.3617809309943529   T   T   T
  0.6851551038387381  0.5067630785774447  0.3876612294633714   T   T   T
  0.9356272177423535  0.5036431435683865  0.3882209012640047   T   T   T
  0.1867297828094063  0.5003893537244423  0.3892964868393347   T   T   T
  0.4367606303427919  0.5015956237829152  0.3888160487491612   T   T   T
  0.3125020243079035  0.5000403564425184  0.4629061959652105   F   F   F
  0.5625020243079035  0.5000403564425184  0.4629061959652105   F   F   F
  0.0625020243079035  0.5000403564425184  0.4629061959652105   F   F   F
  0.8125020243079035  0.5000403564425184  0.4629061959652105   F   F   F
  0.3541686909745678  0.8333736897758541  0.4876144947506660   F   F   F
  0.1041686909745678  0.8333736897758541  0.4876144947506660   F   F   F
  0.8541686909745678  0.8333736897758541  0.4876144947506660   F   F   F
  0.6041686909745678  0.8333736897758541  0.4876144947506660   F   F   F
  0.4787272258161757  0.8344928161402214  0.4115182961848857   T   T   T
  0.7285272123596780  0.8343460919178627  0.4104172161795232   T   T   T
  0.2296364089013893  0.8307108296862514  0.4121607793924952   T   T   T
  0.9790694971138630  0.8340464649843937  0.4100329109046018   T   T   T
  0.2708353576412392  0.1667070231091827  0.4381978971797551   F   F   F
  0.5208353576412392  0.1667070231091827  0.4381978971797551   F   F   F
  0.0208353576412392  0.1667070231091827  0.4381978971797551   F   F   F
  0.7708353576412392  0.1667070231091827  0.4381978971797551   F   F   F
  0.6875020243079035  0.5000403564425184  0.5370310923215840   F   F   F
  0.9375020243079035  0.5000403564425184  0.5370310923215840   F   F   F
  0.1875020243079035  0.5000403564425184  0.5370310923215840   F   F   F
  0.4375020243079035  0.5000403564425184  0.5370310923215840   F   F   F
  0.3958353576412392  0.1667070231091827  0.5123227935361285   F   F   F
  0.1458353576412392  0.1667070231091827  0.5123227935361285   F   F   F
  0.6458353576412392  0.1667070231091827  0.5123227935361285   F   F   F
  0.8958353576412392  0.1667070231091827  0.5123227935361285   F   F   F
  0.4791686909745678  0.8333736897758541  0.5617393911070394   F   F   F
  0.7291686909745678  0.8333736897758541  0.5617393911070394   F   F   F
  0.9791686909745678  0.8333736897758541  0.5617393911070394   F   F   F
  0.2291686909745678  0.8333736897758541  0.5617393911070394   F   F   F
  0.5212768813573744  0.1655830236180919  0.5884184768675179   T   T   T
  0.2714681943247328  0.1657471779584390  0.5895070371648339   T   T   T
  0.0209199260889922  0.1660543086310880  0.5898923957471977   T   T   T
  0.7703582417730753  0.1693837925242457  0.5877757509440813   T   T   T
  0.3541696496756124  0.8245246997672937  0.6338316097530261   T   T   T
  0.1106098103515196  0.8227014785436594  0.6341050820002688   T   T   T
  0.8620095098870416  0.8348430247234850  0.6352945289431969   T   T   T
  0.5995272384929323  0.8328101931123746  0.6381614362580009   T   T   T
  0.0643722274000484  0.4964371765538376  0.6117083294720623   T   T   T
  0.3148371611470533  0.4933344239164244  0.6122694749417074   T   T   T
  0.5632382463973222  0.4984813376196764  0.6111199551825071   T   T   T
  0.8132660000612940  0.4996898809334568  0.6106459831669324   T   T   T
 
  0.00000000E+00  0.00000000E+00  0.00000000E+00
  0.00000000E+00  0.00000000E+00  0.00000000E+00
  0.00000000E+00  0.00000000E+00  0.00000000E+00
  0.00000000E+00  0.00000000E+00  0.00000000E+00
  0.00000000E+00  0.00000000E+00  0.00000000E+00
  0.00000000E+00  0.00000000E+00  0.00000000E+00
  0.00000000E+00  0.00000000E+00  0.00000000E+00
  0.00000000E+00  0.00000000E+00  0.00000000E+00
  0.00000000E+00  0.00000000E+00  0.00000000E+00
  0.00000000E+00  0.00000000E+00  0.00000000E+00
  0.00000000E+00  0.00000000E+00  0.00000000E+00
  0.00000000E+00  0.00000000E+00  0.00000000E+00
  0.00000000E+00  0.00000000E+00  0.00000000E+00
  0.00000000E+00  0.00000000E+00  0.00000000E+00
  0.00000000E+00  0.00000000E+00  0.00000000E+00
  0.00000000E+00  0.00000000E+00  0.00000000E+00
  0.00000000E+00  0.00000000E+00  0.00000000E+00
  0.00000000E+00  0.00000000E+00  0.00000000E+00
  0.00000000E+00  0.00000000E+00  0.00000000E+00
  0.00000000E+00  0.00000000E+00  0.00000000E+00
  0.00000000E+00  0.00000000E+00  0.00000000E+00
  0.00000000E+00  0.00000000E+00  0.00000000E+00
  0.00000000E+00  0.00000000E+00  0.00000000E+00
  0.00000000E+00  0.00000000E+00  0.00000000E+00
  0.00000000E+00  0.00000000E+00  0.00000000E+00
  0.00000000E+00  0.00000000E+00  0.00000000E+00
  0.00000000E+00  0.00000000E+00  0.00000000E+00
  0.00000000E+00  0.00000000E+00  0.00000000E+00
  0.00000000E+00  0.00000000E+00  0.00000000E+00
  0.00000000E+00  0.00000000E+00  0.00000000E+00
  0.00000000E+00  0.00000000E+00  0.00000000E+00
  0.00000000E+00  0.00000000E+00  0.00000000E+00
  0.00000000E+00  0.00000000E+00  0.00000000E+00
  0.00000000E+00  0.00000000E+00  0.00000000E+00
  0.00000000E+00  0.00000000E+00  0.00000000E+00
  0.00000000E+00  0.00000000E+00  0.00000000E+00
  0.00000000E+00  0.00000000E+00  0.00000000E+00
  0.00000000E+00  0.00000000E+00  0.00000000E+00
  0.00000000E+00  0.00000000E+00  0.00000000E+00
  0.00000000E+00  0.00000000E+00  0.00000000E+00
  0.00000000E+00  0.00000000E+00  0.00000000E+00
  0.00000000E+00  0.00000000E+00  0.00000000E+00
  0.00000000E+00  0.00000000E+00  0.00000000E+00
  0.00000000E+00  0.00000000E+00  0.00000000E+00
  0.00000000E+00  0.00000000E+00  0.00000000E+00
  0.00000000E+00  0.00000000E+00  0.00000000E+00
  0.00000000E+00  0.00000000E+00  0.00000000E+00
  0.00000000E+00  0.00000000E+00  0.00000000E+00
  0.00000000E+00  0.00000000E+00  0.00000000E+00
  0.00000000E+00  0.00000000E+00  0.00000000E+00
  0.00000000E+00  0.00000000E+00  0.00000000E+00
  0.00000000E+00  0.00000000E+00  0.00000000E+00
  0.00000000E+00  0.00000000E+00  0.00000000E+00
  0.00000000E+00  0.00000000E+00  0.00000000E+00
  0.00000000E+00  0.00000000E+00  0.00000000E+00
  0.00000000E+00  0.00000000E+00  0.00000000E+00
