 H  C  O Cu 
 1.0000000000000000
    10.2710469276006560    0.0000000000000000    0.0000000000000006
     2.5677617319001635    6.2897060242006209    0.0000000000000005
     0.0000000000000000    0.0000000000000000   30.0000000000000000
 H   C   O   Cu 
   2   2   4  48
Selective dynamics
Cartesian
  3.8840424754081400  0.7895212862916097  7.1719314566734109   T   T   T
  8.9528067569854013  5.4995398348510340 22.8280685433265873   T   T   T
  9.0804655446626334  5.4335720024978320 20.9119683168329722   T   T   T
  3.7576586848290496  0.8562462061686866  9.0878036613740889   T   T   T
  4.4783093993628666  0.8445216126760586  7.9500243414384872   T   T   T
  2.4993556682958560  0.7781745904979596  8.9813485179947641   T   T   T
 10.3387333347321029  5.5115314337026611 21.0187026228380915   T   T   T
  8.3591817135176871  5.4447998242455133 22.0494641134035376   T   T   T
  1.8263072784927801  1.0152783745510285 10.9186644514951201   T   T   T
  7.0753479047111538  1.0824278451888301 10.9715211866165347   T   T   T
  9.5845723878220568  1.0755732038211672 10.9804338231570142   T   T   T
  4.5495759122796793  1.0291112500819870 10.8808659234092922   T   T   T
  8.3378625377280073  3.1689390468047756 11.6397507044231538   T   T   T
 10.9083019378581962  3.1480090574169712 11.6592566512472757   T   T   T
  3.2066388548367377  3.1422464747686414 11.6729989585034879   T   T   T
  5.7716572990262591  3.1554655525441091 11.6627061668509011   T   T   T
  4.4937074483154671  3.1451068422599224 13.8871858789563607   F   F   F
  7.0614691802156315  3.1451068422599224 13.8871858789563607   F   F   F
  1.9259457164153033  3.1451068422599224 13.8871858789563607   F   F   F
  9.6292309121157942  3.1451068422599224 13.8871858789563607   F   F   F
  5.7775883142655307  5.2416755169934772 14.6284348425200257   F   F   F
  3.2098265823653667  5.2416755169934772 14.6284348425200257   F   F   F
 10.9131117780658595  5.2416755169934772 14.6284348425200257   F   F   F
  8.3453500461656951  5.2416755169934772 14.6284348425200257   F   F   F
  7.0585915540840531  5.2372829460422299 12.3639985040719260   T   T   T
  9.6279077048394992  5.2393147665062729 12.3405252506855874   T   T   T
  4.4883640673550635  5.2255504788659959 12.3712867245752030   T   T   T
 12.2005261269489953  5.2319947642664371 12.3337827907063797   T   T   T
  3.2098265823654035  1.0485381675263674 13.1459369153926975   F   F   F
  5.7775883142655680  1.0485381675263674 13.1459369153926975   F   F   F
  0.6420648504652394  1.0485381675263674 13.1459369153926957   F   F   F
  8.3453500461657324  1.0485381675263674 13.1459369153926975   F   F   F
  8.3453500461657129  3.1451068422599224 16.1109327696474907   F   F   F
 10.9131117780658773  3.1451068422599224 16.1109327696474907   F   F   F
  3.2098265823653849  3.1451068422599224 16.1109327696474907   F   F   F
  5.7775883142655502  3.1451068422599224 16.1109327696474907   F   F   F
  4.4937074483154857  1.0485381675263674 15.3696838060838292   F   F   F
  1.9259457164153215  1.0485381675263674 15.3696838060838292   F   F   F
  7.0614691802156493  1.0485381675263674 15.3696838060838292   F   F   F
  9.6292309121158137  1.0485381675263674 15.3696838060838292   F   F   F
  7.0614691802156129  5.2416755169934772 16.8521817332111539   F   F   F
  9.6292309121157764  5.2416755169934772 16.8521817332111539   F   F   F
 12.1969926440159409  5.2416755169934772 16.8521817332111574   F   F   F
  4.4937074483154493  5.2416755169934772 16.8521817332111539   F   F   F
  5.7805374983398412  1.0529586937507545 17.6343616784142228   T   T   T
  3.2111114382600023  1.0510858621112524 17.6576824551449292   T   T   T
  0.6385729096828904  1.0584225357382666 17.6644610313009665   T   T   T
  8.3507079635389374  1.0646390778534813 17.6272043197988353   T   T   T
  5.7637583132278287  5.2079773370891012 19.0266265702376813   T   T   T
  3.2544753228834256  5.2148197964381140 19.0177182882010953   T   T   T
 11.0124638328206697  5.2751502569329292 19.0807927439044889   T   T   T
  8.2897629236040338  5.2612854095089450 19.1183155155267492   T   T   T
  1.9306717115265484  3.1425439544979827 18.3390443214454848   T   T   T
  4.5012439959244688  3.1214819524484723 18.3584801493257288   T   T   T
  7.0675513080333126  3.1348385549315538 18.3355027813214377   T   T   T
  9.6324728199007517  3.1481788978480898 18.3252069992680404   T   T   T
