 C  O Cu                                
   1.00000000000000     
    10.2710469276006560    0.0000000000000000    0.0000000000000006
     2.5677617319001635    6.2897060242006209    0.0000000000000005
     0.0000000000000000    0.0000000000000000   40.0000000000000000
   C    O    Cu
     4     4    48
Selective dynamics
Direct
  0.1787600860640026  0.1476866688091931  0.3499617718728985   T   T   T
  0.3587440039217071  0.1554236704316381  0.3495899309446386   T   T   T
  0.6369627152821664  0.8468107022573008  0.6505548871298501   T   T   T
  0.8175840300574393  0.8518784282837260  0.6504564190708635   T   T   T
  0.1281264571321543  0.1417619848463758  0.3228828199607960   T   T   T
  0.4049967151622482  0.1611344283227041  0.3219537685568383   T   T   T
  0.5880566843260482  0.8466126542665933  0.6780462314431617   T   T   T
  0.8669496944218409  0.8582380151536242  0.6776737385826266   T   T   T
  0.1322935258151077  0.1687265038608459  0.3972940982908213   T   T   T
  0.4033743339161191  0.1694670759610304  0.3966406485722374   T   T   T
  0.6461369305091225  0.1758733164957391  0.3996362032214478   T   T   T
  0.8877878598221969  0.1754750338497431  0.3997571036887777   T   T   T
  0.6849770884842101  0.5058888964131825  0.4161666805592361   T   T   T
  0.9353183255708970  0.5033775249940007  0.4165452922972079   T   T   T
  0.1867823353839313  0.4979050983222706  0.4167345190927989   T   T   T
  0.4353713291552381  0.5033611788857755  0.4165881193469332   T   T   T
  0.3126371184542549  0.4986438587988218  0.4723916115576472   F   F   F
  0.0626371184542549  0.4986438587988218  0.4723916115576472   F   F   F
  0.5626371184542549  0.4986438587988218  0.4723916115576472   F   F   F
  0.8126371184542549  0.4986438587988218  0.4723916115576472   F   F   F
  0.3543037851209192  0.8319771921321575  0.4909228356467352   F   F   F
  0.1043037851209192  0.8319771921321575  0.4909228356467352   F   F   F
  0.8543037851209192  0.8319771921321575  0.4909228356467352   F   F   F
  0.6043037851209192  0.8319771921321575  0.4909228356467352   F   F   F
  0.2283018304852149  0.8337011570041142  0.4333422174665671   T   T   T
  0.7281944749170677  0.8337519034854282  0.4332630759570861   T   T   T
  0.9793030499791726  0.8321862981379340  0.4332879144656516   T   T   T
  0.4774234529770709  0.8347642631225938  0.4333752762079257   T   T   T
  0.2709704517875906  0.1653105254654861  0.4538603874685521   F   F   F
  0.5209704517875906  0.1653105254654861  0.4538603874685521   F   F   F
  0.0209704517875906  0.1653105254654861  0.4538603874685521   F   F   F
  0.7709704517875906  0.1653105254654861  0.4538603874685521   F   F   F
  0.6876371184542549  0.4986438587988218  0.5279852838249184   F   F   F
  0.9376371184542549  0.4986438587988218  0.5279852838249184   F   F   F
  0.1876371184542549  0.4986438587988218  0.5279852838249184   F   F   F
  0.4376371184542549  0.4986438587988218  0.5279852838249184   F   F   F
  0.6459704517875906  0.1653105254654861  0.5094540597358233   F   F   F
  0.3959704517875906  0.1653105254654861  0.5094540597358233   F   F   F
  0.1459704517875906  0.1653105254654861  0.5094540597358233   F   F   F
  0.8959704517875906  0.1653105254654861  0.5094540597358233   F   F   F
  0.4793037851209192  0.8319771921321575  0.5465165079140064   F   F   F
  0.7293037851209192  0.8319771921321575  0.5465165079140064   F   F   F
  0.9793037851209192  0.8319771921321575  0.5465165079140064   F   F   F
  0.2293037851209192  0.8319771921321575  0.5465165079140064   F   F   F
  0.5224727586275719  0.1627304055632166  0.5669207370149110   T   T   T
  0.2716788926658040  0.1636049418775301  0.5671115761200269   T   T   T
  0.0206962148790808  0.1651615023735431  0.5670973324477373   T   T   T
  0.7717309896724132  0.1635318982414375  0.5670520112337698   T   T   T
  0.3533018745647851  0.8212814567175997  0.6007287534973855   T   T   T
  0.1116801991970320  0.8218630250612762  0.6006275640889740   T   T   T
  0.8669581422202768  0.8286402028389901  0.6032771334275751   T   T   T
  0.5956373064570855  0.8281780398613279  0.6034542667658656   T   T   T
  0.5644222054591097  0.4937284098059891  0.5837792219697207   T   T   T
  0.8130129907714618  0.4994185508390174  0.5836500571921732   T   T   T
  0.0642715729481225  0.4941569363347540  0.5838542999750018   T   T   T
  0.3146577607591681  0.4914319244152878  0.5842086723215019   T   T   T
 
  0.00000000E+00  0.00000000E+00  0.00000000E+00
  0.00000000E+00  0.00000000E+00  0.00000000E+00
  0.00000000E+00  0.00000000E+00  0.00000000E+00
  0.00000000E+00  0.00000000E+00  0.00000000E+00
  0.00000000E+00  0.00000000E+00  0.00000000E+00
  0.00000000E+00  0.00000000E+00  0.00000000E+00
  0.00000000E+00  0.00000000E+00  0.00000000E+00
  0.00000000E+00  0.00000000E+00  0.00000000E+00
  0.00000000E+00  0.00000000E+00  0.00000000E+00
  0.00000000E+00  0.00000000E+00  0.00000000E+00
  0.00000000E+00  0.00000000E+00  0.00000000E+00
  0.00000000E+00  0.00000000E+00  0.00000000E+00
  0.00000000E+00  0.00000000E+00  0.00000000E+00
  0.00000000E+00  0.00000000E+00  0.00000000E+00
  0.00000000E+00  0.00000000E+00  0.00000000E+00
  0.00000000E+00  0.00000000E+00  0.00000000E+00
  0.00000000E+00  0.00000000E+00  0.00000000E+00
  0.00000000E+00  0.00000000E+00  0.00000000E+00
  0.00000000E+00  0.00000000E+00  0.00000000E+00
  0.00000000E+00  0.00000000E+00  0.00000000E+00
  0.00000000E+00  0.00000000E+00  0.00000000E+00
  0.00000000E+00  0.00000000E+00  0.00000000E+00
  0.00000000E+00  0.00000000E+00  0.00000000E+00
  0.00000000E+00  0.00000000E+00  0.00000000E+00
  0.00000000E+00  0.00000000E+00  0.00000000E+00
  0.00000000E+00  0.00000000E+00  0.00000000E+00
  0.00000000E+00  0.00000000E+00  0.00000000E+00
  0.00000000E+00  0.00000000E+00  0.00000000E+00
  0.00000000E+00  0.00000000E+00  0.00000000E+00
  0.00000000E+00  0.00000000E+00  0.00000000E+00
  0.00000000E+00  0.00000000E+00  0.00000000E+00
  0.00000000E+00  0.00000000E+00  0.00000000E+00
  0.00000000E+00  0.00000000E+00  0.00000000E+00
  0.00000000E+00  0.00000000E+00  0.00000000E+00
  0.00000000E+00  0.00000000E+00  0.00000000E+00
  0.00000000E+00  0.00000000E+00  0.00000000E+00
  0.00000000E+00  0.00000000E+00  0.00000000E+00
  0.00000000E+00  0.00000000E+00  0.00000000E+00
  0.00000000E+00  0.00000000E+00  0.00000000E+00
  0.00000000E+00  0.00000000E+00  0.00000000E+00
  0.00000000E+00  0.00000000E+00  0.00000000E+00
  0.00000000E+00  0.00000000E+00  0.00000000E+00
  0.00000000E+00  0.00000000E+00  0.00000000E+00
  0.00000000E+00  0.00000000E+00  0.00000000E+00
  0.00000000E+00  0.00000000E+00  0.00000000E+00
  0.00000000E+00  0.00000000E+00  0.00000000E+00
  0.00000000E+00  0.00000000E+00  0.00000000E+00
  0.00000000E+00  0.00000000E+00  0.00000000E+00
  0.00000000E+00  0.00000000E+00  0.00000000E+00
  0.00000000E+00  0.00000000E+00  0.00000000E+00
  0.00000000E+00  0.00000000E+00  0.00000000E+00
  0.00000000E+00  0.00000000E+00  0.00000000E+00
  0.00000000E+00  0.00000000E+00  0.00000000E+00
  0.00000000E+00  0.00000000E+00  0.00000000E+00
  0.00000000E+00  0.00000000E+00  0.00000000E+00
  0.00000000E+00  0.00000000E+00  0.00000000E+00
