 C  O Cu 
 1.0000000000000000
    10.2710469276006560    0.0000000000000000    0.0000000000000006
     2.5677617319001635    6.2897060242006209    0.0000000000000005
     0.0000000000000000    0.0000000000000000   32.6149543968023465
 C   O   Cu 
   2   4  48
Selective dynamics
Cartesian
  6.9847834610308670  1.0343634496426513 10.6773691721855215   T   T   T
  5.8540251984699534  5.2553425745579689 21.9375852246168250   T   T   T
  8.1659418706405322  1.0119239162806364 10.0717378375699376   T   T   T
  5.8503353941390825  0.9715449907961892 10.0067074672063914   T   T   T
  4.6728667888602873  5.2777821079199843 22.5432165592324090   T   T   T
  6.9884732653617379  5.3181610334044311 22.6082469295959534   T   T   T
  2.0644765361996518  1.0278910186021633 12.2306078988008764   T   T   T
  4.6322382680998215  1.0278910186021633 12.2306078988008800   T   T   T
  4.6322382680998206  5.2210283680692466 13.7131058259282579   T   T   T
  9.7677617319001442  5.2210283680692466 13.7131058259282614   T   T   T
  7.1999999999999824  1.0278910186021633 12.2306078988008800   T   T   T
  9.7677617319001442  1.0278910186021633 12.2306078988008800   T   T   T
  8.4838808659500682  3.1244596933357114 12.9718568623645734   T   T   T
 11.0516425978502220  3.1244596933357114 12.9718568623645734   T   T   T
  3.3483574021497380  3.1244596933357114 12.9718568623645734   T   T   T
  5.9161191340499029  3.1244596933357114 12.9718568623645734   T   T   T
  4.6322382680998189  3.1244596933357114 15.1956037530556376   F   F   F
  2.0644765361996509  3.1244596933357114 15.1956037530556376   F   F   F
  7.1999999999999833  3.1244596933357114 15.1956037530556411   F   F   F
  9.7677617319001460  3.1244596933357114 15.1956037530556411   F   F   F
  5.9161191340498940  5.2210283680692466 15.9368527166193239   F   F   F
  3.3483574021497313  5.2210283680692466 15.9368527166193239   F   F   F
 11.0516425978502220  5.2210283680692466 15.9368527166193257   F   F   F
  8.4838808659500593  5.2210283680692466 15.9368527166193275   F   F   F
  9.7677617319001477  1.0278910186021615 16.6781016801830191   F   F   F
  2.0644765361996491  1.0278910186021615 16.6781016801830191   F   F   F
 12.3355234638003033  5.2210283680692466 13.7131058259282632   T   T   T
  7.1999999999999815  5.2210283680692466 13.7131058259282650   T   T   T
  3.3483574021497380  1.0278910186021601 14.4543547894919477   F   F   F
  5.9161191340499046  1.0278910186021601 14.4543547894919477   F   F   F
  0.7805956702495687  1.0278910186021601 14.4543547894919495   F   F   F
  8.4838808659500735  1.0278910186021601 14.4543547894919495   F   F   F
  8.4838808659500700  3.1244596933357114 17.4193506437467107   F   F   F
 11.0516425978502220  3.1244596933357114 17.4193506437467107   F   F   F
  3.3483574021497420  3.1244596933357114 17.4193506437467107   F   F   F
  5.9161191340499073  3.1244596933357114 17.4193506437467107   F   F   F
  7.1999999999999860  1.0278910186021615 16.6781016801830191   F   F   F
  4.6322382680998206  1.0278910186021615 16.6781016801830191   F   F   F
  7.1999999999999833  5.2210283680692466 18.1605996073103988   F   F   F
  9.7677617319001477  5.2210283680692466 18.1605996073103988   F   F   F
  4.6322382680998206  3.1244596933357118 19.6430975344377785   T   T   T
  2.0644765361996504  3.1244596933357118 19.6430975344377785   T   T   T
 12.3355234638003068  5.2210283680692466 18.1605996073103988   F   F   F
  4.6322382680998206  5.2210283680692466 18.1605996073103988   F   F   F
  5.9161191340499055  1.0278910186021615 18.9018485708741046   T   T   T
  3.3483574021497402  1.0278910186021615 18.9018485708741046   T   T   T
  0.7805956702495690  1.0278910186021615 18.9018485708741046   T   T   T
  8.4838808659500717  1.0278910186021615 18.9018485708741046   T   T   T
  5.9161191340498966  5.2210283680692475 20.3843464980014666   T   T   T
  3.3483574021497344  5.2210283680692475 20.3843464980014666   T   T   T
 11.0516425978502255  5.2210283680692475 20.3843464980014666   T   T   T
  8.4838808659500611  5.2210283680692475 20.3843464980014666   T   T   T
  7.1999999999999815  3.1244596933357118 19.6430975344377785   T   T   T
  9.7677617319001460  3.1244596933357118 19.6430975344377785   T   T   T
