 C  O                                   
   1.00000000000000     
    10.0000000000000000    0.0000000000000000    0.0000000000000000
     0.0000000000000000   10.0000000000000000    0.0000000000000000
     0.0000000000000000    0.0000000000000000   10.0000000000000000
   C    O 
     2     2
Direct
  0.7072011291318184  0.4999987528702555  0.4498348233173018
  0.2927990521568832  0.5000012673031957  0.4498355952603419
  0.3471677718990456  0.5000012667774932  0.5501654103320517
  0.6528320468122525  0.4999987130490555  0.5501641710903037
 
  0.00000000E+00  0.00000000E+00  0.00000000E+00
  0.00000000E+00  0.00000000E+00  0.00000000E+00
  0.00000000E+00  0.00000000E+00  0.00000000E+00
  0.00000000E+00  0.00000000E+00  0.00000000E+00
