 C  O 
 1.0000000000000000
    10.0000000000000000    0.0000000000000000    0.0000000000000000
     0.0000000000000000   10.0000000000000000    0.0000000000000000
     0.0000000000000000    0.0000000000000000   10.0000000000000000
 C   O  
   2   2
Cartesian
  5.7936605999779731  4.9999999999999991  4.4294544435437757
  4.2063394000220269  4.9999999999999991  4.4294544435437757
  3.4936605999779706  4.9999999999999991  5.5705455564562181
  6.5063394000220303  4.9999999999999991  5.5705455564562207
