Cu 
 1.0000000000000000
    10.2710469276006560    0.0000000000000000    0.0000000000000006
     2.5677617319001635    6.2897060242006209    0.0000000000000005
     0.0000000000000000    0.0000000000000000   20.0000000000000000
 Cu 
  48
Selective dynamics
Cartesian
  7.0614958935068772  5.2414216868338652 11.8530854356122468   F   F   F
  9.6292576254070408  5.2414216868338652 11.8530854356122468   F   F   F
 12.1970193573072052  5.2414216868338652 11.8530854356122468   F   F   F
  4.4937341616067137  5.2414216868338652 11.8530854356122468   F   F   F
  7.0625692105739706  3.1402489331289853 13.3623913813280453   T   T   T
  9.6303286860873634  3.1402477312232118 13.3623926071780552   T   T   T
  1.9270466618616477  3.1402485332749084 13.3623928687081310   T   T   T
  4.4948063785413686  3.1402487736620430 13.3623926334460137   T   T   T
  8.3463561967659654  1.0627010775656887 12.6556749526126922   T   T   T
  0.6430704937640451  1.0627003335236189 12.6556748922059761   T   T   T
  3.2108333979535297  1.0627011685369152 12.6556735242382210   T   T   T
  5.7785935719992816  1.0627007284632164 12.6556735172416914   T   T   T
  8.3457904814352286  5.2361054265922107 14.0306151715796332   T   T   T
 10.9135529084714626  5.2361041215644786 14.0306157579253075   T   T   T
  3.2102670423659072  5.2361040616578913 14.0306146692062441   T   T   T
  5.7780281584476523  5.2361048856757222 14.0306135672577774   T   T   T
  9.6292576254070585  3.1448530121003104  8.8880895813576331   F   F   F
  1.9259724297065672  3.1448530121003104  8.8880895813576331   F   F   F
  4.4937341616067314  3.1448530121003104  8.8880895813576331   F   F   F
  7.0614958935068950  3.1448530121003104  8.8880895813576331   F   F   F
  9.6292576254070781  1.0482843373667552 10.3705875084848245   F   F   F
  1.9259724297065859  1.0482843373667552 10.3705875084848245   F   F   F
  4.4937341616067492  1.0482843373667552 10.3705875084848245   F   F   F
  7.0614958935069136  1.0482843373667552 10.3705875084848245   F   F   F
  8.3453767594569594  5.2414216868338652  9.6293385449213460   F   F   F
 10.9131384913571239  5.2414216868338652  9.6293385449213460   F   F   F
  3.2098532956566306  5.2414216868338652  9.6293385449213460   F   F   F
  5.7776150275567950  5.2414216868338652  9.6293385449213460   F   F   F
  8.3453767594569772  3.1448530121003104 11.1118364720485374   F   F   F
 10.9131384913571416  3.1448530121003104 11.1118364720485374   F   F   F
  3.2098532956566492  3.1448530121003104 11.1118364720485374   F   F   F
  5.7776150275568128  3.1448530121003104 11.1118364720485374   F   F   F
  7.0610485104234861  1.0535028191248714  5.9693863961300169   T   T   T
  9.6288101614713586  1.0535022887083616  5.9693853143694851   T   T   T
  1.9255248413260257  1.0535019913895587  5.9693842420746934   T   T   T
  4.4932854213443054  1.0535027429972921  5.9693858430615121   T   T   T
  9.6281519111947311  5.2274349197352317  7.3441928648760575   T   T   T
 12.1959135521693973  5.2274352979447327  7.3441915356558569   T   T   T
  4.4926291402946541  5.2274360245810270  7.3441914297354840   T   T   T
  7.0603895155257694  5.2274357427231095  7.3441916834908882   T   T   T
  8.3447993743197717  3.1490945154159085  6.6374131962661940   T   T   T
 10.9125630144071497  3.1490937095955345  6.6374137134098747   T   T   T
  3.2092752114834875  3.1490933535845325  6.6374133265042756   T   T   T
  5.7770392492122307  3.1490950223039129  6.6374136327231019   T   T   T
  5.7776150275568314  1.0482843373667552  8.1468406177939237   F   F   F
  8.3453767594569968  1.0482843373667552  8.1468406177939237   F   F   F
  0.6420915637565037  1.0482843373667552  8.1468406177939237   F   F   F
  3.2098532956566679  1.0482843373667552  8.1468406177939237   F   F   F
