 H  C  O Cu                             
   1.00000000000000     
    10.2710469276006560    0.0000000000000000    0.0000000000000006
     2.5677617319001635    6.2897060242006209    0.0000000000000005
     0.0000000000000000    0.0000000000000000   30.0000000000000000
   H    C    O    Cu
     2     4     4    48
Selective dynamics
Direct
  0.1771241068464020  0.1707603460063129  0.2397503015281063   T   T   T
  0.8228433982839672  0.8292587022427251  0.7602510557304457   T   T   T
  0.8051549782890637  0.8345658222118110  0.6956233898946304   T   T   T
  0.1948036345354075  0.1654827223151641  0.3043775686444069   T   T   T
  0.6538713665410406  0.8341691398639759  0.6984725994258039   T   T   T
  0.3461029256434064  0.1658307595199076  0.3015270145944690   T   T   T
  0.1270633009463890  0.1706340710023977  0.2677553529328434   T   T   T
  0.4065105357836706  0.1602954680695765  0.2665953145954054   T   T   T
  0.5934638619864139  0.8396926920000867  0.7334069372276336   T   T   T
  0.8728986036287490  0.8294148638932610  0.7322440509826584   T   T   T
  0.1366934302155985  0.1646982583039348  0.3647012995202868   T   T   T
  0.4014922209591439  0.1678115063097792  0.3639459896036372   T   T   T
  0.6860189013520206  0.5027387414713551  0.3885040372030246   T   T   T
  0.9351240885668903  0.5034722806652503  0.3888591624718938   T   T   T
  0.6456895275934836  0.1687263660633583  0.3651407345943358   T   T   T
  0.8912791776274411  0.1668236886256270  0.3655681064295870   T   T   T
  0.3124965692478412  0.5000210128637335  0.4629380646063197   F   F   F
  0.0624965692478412  0.5000210128637335  0.4629380646063197   F   F   F
  0.5624965692478412  0.5000210128637335  0.4629380646063197   F   F   F
  0.8124965692478412  0.5000210128637335  0.4629380646063197   F   F   F
  0.3541632359145055  0.8333543461970692  0.4876463633917751   F   F   F
  0.1041632359145055  0.8333543461970692  0.4876463633917751   F   F   F
  0.1866022908414539  0.5007367476226054  0.3885122887486718   T   T   T
  0.4367583585135941  0.5025275235525579  0.3886988735818977   T   T   T
  0.2291332850443065  0.8322677421890357  0.4118883968636937   T   T   T
  0.7284891460327730  0.8334372756184735  0.4122751202923083   T   T   T
  0.9796740136357358  0.8327266776912510  0.4121632345168685   T   T   T
  0.4783368399177922  0.8336594461320631  0.4118986162039011   T   T   T
  0.2708299025811769  0.1666876795303978  0.4382297658208572   F   F   F
  0.5208299025811769  0.1666876795303978  0.4382297658208572   F   F   F
  0.0208299025811769  0.1666876795303978  0.4382297658208572   F   F   F
  0.7708299025811769  0.1666876795303978  0.4382297658208572   F   F   F
  0.6874965692478412  0.5000210128637335  0.5370629609626789   F   F   F
  0.9374965692478412  0.5000210128637335  0.5370629609626789   F   F   F
  0.1874965692478412  0.5000210128637335  0.5370629609626789   F   F   F
  0.4374965692478412  0.5000210128637335  0.5370629609626789   F   F   F
  0.6458299025811769  0.1666876795303978  0.5123546621772235   F   F   F
  0.3958299025811769  0.1666876795303978  0.5123546621772235   F   F   F
  0.1458299025811769  0.1666876795303978  0.5123546621772235   F   F   F
  0.8958299025811769  0.1666876795303978  0.5123546621772235   F   F   F
  0.6041632359145055  0.8333543461970692  0.4876463633917751   F   F   F
  0.8541632359145055  0.8333543461970692  0.4876463633917751   F   F   F
  0.4791632359145055  0.8333543461970692  0.5617712597481344   F   F   F
  0.7291632359145055  0.8333543461970692  0.5617712597481344   F   F   F
  0.5216593630174176  0.1663583611131478  0.5881049881482188   T   T   T
  0.2715023261069479  0.1665923477677674  0.5877261852683338   T   T   T
  0.9791632359145055  0.8333543461970692  0.5617712597481344   F   F   F
  0.2291632359145055  0.8333543461970692  0.5617712597481344   F   F   F
  0.3542974121741991  0.8312855768721783  0.6348588998772871   T   T   T
  0.1087096554062813  0.8332165429462570  0.6344338178924538   T   T   T
  0.8632825787034444  0.8353521374252458  0.6353003746134207   T   T   T
  0.5984878496745408  0.8321849471746481  0.6360547734417510   T   T   T
  0.5632143826171739  0.4974917895151347  0.6112973835435827   T   T   T
  0.8133710311992634  0.4992959799095827  0.6114879867194429   T   T   T
  0.0648583690114799  0.4965698802312098  0.6111401463223605   T   T   T
  0.3139649964039442  0.4972826174411334  0.6114963222074823   T   T   T
  0.7708548407200880  0.1677652984553286  0.5881104790743484   T   T   T
  0.0203076005294009  0.1673132654206725  0.5878349829689251   T   T   T
 
  0.00000000E+00  0.00000000E+00  0.00000000E+00
  0.00000000E+00  0.00000000E+00  0.00000000E+00
  0.00000000E+00  0.00000000E+00  0.00000000E+00
  0.00000000E+00  0.00000000E+00  0.00000000E+00
  0.00000000E+00  0.00000000E+00  0.00000000E+00
  0.00000000E+00  0.00000000E+00  0.00000000E+00
  0.00000000E+00  0.00000000E+00  0.00000000E+00
  0.00000000E+00  0.00000000E+00  0.00000000E+00
  0.00000000E+00  0.00000000E+00  0.00000000E+00
  0.00000000E+00  0.00000000E+00  0.00000000E+00
  0.00000000E+00  0.00000000E+00  0.00000000E+00
  0.00000000E+00  0.00000000E+00  0.00000000E+00
  0.00000000E+00  0.00000000E+00  0.00000000E+00
  0.00000000E+00  0.00000000E+00  0.00000000E+00
  0.00000000E+00  0.00000000E+00  0.00000000E+00
  0.00000000E+00  0.00000000E+00  0.00000000E+00
  0.00000000E+00  0.00000000E+00  0.00000000E+00
  0.00000000E+00  0.00000000E+00  0.00000000E+00
  0.00000000E+00  0.00000000E+00  0.00000000E+00
  0.00000000E+00  0.00000000E+00  0.00000000E+00
  0.00000000E+00  0.00000000E+00  0.00000000E+00
  0.00000000E+00  0.00000000E+00  0.00000000E+00
  0.00000000E+00  0.00000000E+00  0.00000000E+00
  0.00000000E+00  0.00000000E+00  0.00000000E+00
  0.00000000E+00  0.00000000E+00  0.00000000E+00
  0.00000000E+00  0.00000000E+00  0.00000000E+00
  0.00000000E+00  0.00000000E+00  0.00000000E+00
  0.00000000E+00  0.00000000E+00  0.00000000E+00
  0.00000000E+00  0.00000000E+00  0.00000000E+00
  0.00000000E+00  0.00000000E+00  0.00000000E+00
  0.00000000E+00  0.00000000E+00  0.00000000E+00
  0.00000000E+00  0.00000000E+00  0.00000000E+00
  0.00000000E+00  0.00000000E+00  0.00000000E+00
  0.00000000E+00  0.00000000E+00  0.00000000E+00
  0.00000000E+00  0.00000000E+00  0.00000000E+00
  0.00000000E+00  0.00000000E+00  0.00000000E+00
  0.00000000E+00  0.00000000E+00  0.00000000E+00
  0.00000000E+00  0.00000000E+00  0.00000000E+00
  0.00000000E+00  0.00000000E+00  0.00000000E+00
  0.00000000E+00  0.00000000E+00  0.00000000E+00
  0.00000000E+00  0.00000000E+00  0.00000000E+00
  0.00000000E+00  0.00000000E+00  0.00000000E+00
  0.00000000E+00  0.00000000E+00  0.00000000E+00
  0.00000000E+00  0.00000000E+00  0.00000000E+00
  0.00000000E+00  0.00000000E+00  0.00000000E+00
  0.00000000E+00  0.00000000E+00  0.00000000E+00
  0.00000000E+00  0.00000000E+00  0.00000000E+00
  0.00000000E+00  0.00000000E+00  0.00000000E+00
  0.00000000E+00  0.00000000E+00  0.00000000E+00
  0.00000000E+00  0.00000000E+00  0.00000000E+00
  0.00000000E+00  0.00000000E+00  0.00000000E+00
  0.00000000E+00  0.00000000E+00  0.00000000E+00
  0.00000000E+00  0.00000000E+00  0.00000000E+00
  0.00000000E+00  0.00000000E+00  0.00000000E+00
  0.00000000E+00  0.00000000E+00  0.00000000E+00
  0.00000000E+00  0.00000000E+00  0.00000000E+00
  0.00000000E+00  0.00000000E+00  0.00000000E+00
  0.00000000E+00  0.00000000E+00  0.00000000E+00
