 H  C  O Cu 
 1.0000000000000000
    10.2710469276006560    0.0000000000000000    0.0000000000000006
     2.5677617319001635    6.2897060242006209    0.0000000000000005
     0.0000000000000000    0.0000000000000000   30.0000000000000000
 H   C   O   Cu 
   2   4   4  48
Selective dynamics
Cartesian
  2.2985121487997615  1.0712616113286488  7.2150516340907176   T   T   T
 10.5400334435455658  5.2184406930398586 22.7849483659092833   T   T   T
 10.3905083576213446  5.2373207782172839 20.8517659642372628   T   T   T
  2.4481216994254296  1.0527098954261633  9.1482099460639965   T   T   T
  8.8963644714939587  5.2312297577854387 20.9634718931409907   T   T   T
  3.9421566574851155  1.0583365848440800  9.0362500901100287   T   T   T
  1.7381015417839212  1.0643884906594903  8.0185132257309437   T   T   T
  4.5448360895841642  1.0075410312597961  7.9608513994603047   T   T   T
  8.2934943190086301  5.2821649929408245 22.0395109201761130   T   T   T
 11.1004092195430157  5.2258016045010169 21.9814629456543109   T   T   T
  1.8177526939121724  1.0414006743519915 10.9356152543797425   T   T   T
  4.5601487530346159  1.0653573775960006 10.8945575194866073   T   T   T
  8.3352501952076601  3.1664116665580377 11.6405814621714736   T   T   T
 10.8972101773357331  3.1608163391116659 11.6608595314574490   T   T   T
  7.0691407016285304  1.0805659760919808 10.9672062642046573   T   T   T
  9.5745811676282546  1.0664323461520075 10.9747538826891287   T   T   T
  4.4936017494362162  3.1449851768359043 13.8881419381895004   F   F   F
  1.9258400175360517  3.1449851768359043 13.8881419381895004   F   F   F
  7.0613634813363788  3.1449851768359043 13.8881419381895004   F   F   F
  9.6291252132365432  3.1449851768359043 13.8881419381895004   F   F   F
  5.7774826153862797  5.2415538515694600 14.6293909017532133   F   F   F
  3.2097208834861153  5.2415538515694600 14.6293909017532133   F   F   F
  3.2019016204220225  3.1463626580705788 11.6422241441717667   T   T   T
  5.7749963858733544  3.1638818864029266 11.6556218382223644   T   T   T
  4.4876826060197406  5.2344342304132372 12.3479696917284940   T   T   T
  9.6225658838563835  5.2401632638217608 12.3472961355493922   T   T   T
 12.2016933602657716  5.2337602333656941 12.3464052982633223   T   T   T
  7.0537928822010265  5.2506373837968683 12.3425192470508840   T   T   T
  3.2097208834861521  1.0484165021023490 13.1468929746257892   F   F   F
  5.7774826153863161  1.0484165021023490 13.1468929746257910   F   F   F
  0.6419591515859882  1.0484165021023490 13.1468929746257892   F   F   F
  8.3452443472864832  1.0484165021023490 13.1468929746257910   F   F   F
  8.3452443472864619  3.1449851768359043 16.1118888288804030   F   F   F
 10.9130060791866264  3.1449851768359043 16.1118888288804065   F   F   F
  3.2097208834861339  3.1449851768359043 16.1118888288804030   F   F   F
  5.7774826153862975  3.1449851768359043 16.1118888288804030   F   F   F
  7.0613634813363992  1.0484165021023490 15.3706398653166918   F   F   F
  4.4936017494362339  1.0484165021023490 15.3706398653166918   F   F   F
  1.9258400175360704  1.0484165021023490 15.3706398653166918   F   F   F
  9.6291252132365628  1.0484165021023490 15.3706398653166918   F   F   F
  8.3452443472864442  5.2415538515694600 14.6293909017532133   F   F   F
 10.9130060791866086  5.2415538515694600 14.6293909017532116   F   F   F
  7.0613634813363610  5.2415538515694600 16.8531377924441124   F   F   F
  9.6291252132365255  5.2415538515694600 16.8531377924441124   F   F   F
  5.7844475903576011  1.0390962883498009 17.6575903712650693   T   T   T
  3.2157218149598008  1.0496984805644451 17.6532127225179636   T   T   T
 12.1968869451366899  5.2415538515694600 16.8531377924441124   F   F   F
  4.4936017494361984  5.2415538515694600 16.8531377924441124   F   F   F
  5.7694836381772614  5.2088004275851851 19.0328790998765918   T   T   T
  3.2636066163095689  5.2236860209022691 19.0251195929665897   T   T   T
 11.0204088291910622  5.2487080402617394 19.0643584628834013   T   T   T
  8.2786435357118364  5.2238954716736394 19.1055150626044714   T   T   T
  7.0639533403153880  3.1254787861976454 18.3446848575671311   T   T   T
  9.6371330496964660  3.1433472138308578 18.3577737837163362   T   T   T
  1.9412104553369369  3.1293268276852571 18.3394372262086272   T   T   T
  4.5031495615372457  3.1235888355454908 18.3592732828748524   T   T   T
  8.3509496621566264  1.0555195166331701 17.6518178393772445   T   T   T
  0.6372285232357029  1.0562231318631665 17.6537033441250308   T   T   T
