 H  C  O Cu                             
   1.00000000000000     
    10.2710469276006560    0.0000000000000000    0.0000000000000006
     2.5677617319001635    6.2897060242006209    0.0000000000000005
     0.0000000000000000    0.0000000000000000   30.0000000000000000
   H    C    O    Cu
     2     4     4    48
Selective dynamics
Direct
  0.1812056200749979  0.1703198221358520  0.2405017211363543   T   T   T
  0.8187689152822770  0.8296795864482505  0.7594982788636457   T   T   T
  0.8034605587408237  0.8326813301076186  0.6950588654745786   T   T   T
  0.1965091483361405  0.1673702858886728  0.3049403315354695   T   T   T
  0.6582312312960781  0.8317129191185515  0.6987823964380340   T   T   T
  0.3417463264192406  0.1682648729164740  0.3012083363369982   T   T   T
  0.1269166394887904  0.1692270650749137  0.2672837741910286   T   T   T
  0.4024428293568079  0.1601888907658235  0.2653617133153432   T   T   T
  0.5975106076285925  0.8398111092341765  0.7346503640058728   T   T   T
  0.8730351162261556  0.8308498973392275  0.7327154315218110   T   T   T
  0.1355852678637675  0.1655722334788052  0.3645205084793233   T   T   T
  0.4016356320807546  0.1693811083533774  0.3631519173162232   T   T   T
  0.6856718789304281  0.5034276092355938  0.3880193820723790   T   T   T
  0.9353294146293365  0.5025380084458533  0.3886953177152463   T   T   T
  0.6453092402240515  0.1717991225558606  0.3655735421401545   T   T   T
  0.8898033520669841  0.1695520175424292  0.3658251294229729   T   T   T
  0.3124965692478412  0.5000210128637335  0.4629380646063197   F   F   F
  0.0624965692478412  0.5000210128637335  0.4629380646063197   F   F   F
  0.5624965692478412  0.5000210128637335  0.4629380646063197   F   F   F
  0.8124965692478412  0.5000210128637335  0.4629380646063197   F   F   F
  0.3541632359145055  0.8333543461970692  0.4876463633917751   F   F   F
  0.1041632359145055  0.8333543461970692  0.4876463633917751   F   F   F
  0.1866805261041975  0.5002400185262204  0.3880741381390607   T   T   T
  0.4365034106184424  0.5030253996338487  0.3885207279407439   T   T   T
  0.2288699288863185  0.8322223980378283  0.4115989897242827   T   T   T
  0.7285798850300580  0.8331332567308252  0.4115765378516443   T   T   T
  0.9799409703064867  0.8321152392859048  0.4115468432754454   T   T   T
  0.4780651068028305  0.8347985364648594  0.4114173082350305   T   T   T
  0.2708299025811769  0.1666876795303978  0.4382297658208572   F   F   F
  0.5208299025811769  0.1666876795303978  0.4382297658208572   F   F   F
  0.0208299025811769  0.1666876795303978  0.4382297658208572   F   F   F
  0.7708299025811769  0.1666876795303978  0.4382297658208572   F   F   F
  0.6874965692478412  0.5000210128637335  0.5370629609626789   F   F   F
  0.9374965692478412  0.5000210128637335  0.5370629609626789   F   F   F
  0.1874965692478412  0.5000210128637335  0.5370629609626789   F   F   F
  0.4374965692478412  0.5000210128637335  0.5370629609626789   F   F   F
  0.6458299025811769  0.1666876795303978  0.5123546621772235   F   F   F
  0.3958299025811769  0.1666876795303978  0.5123546621772235   F   F   F
  0.1458299025811769  0.1666876795303978  0.5123546621772235   F   F   F
  0.8958299025811769  0.1666876795303978  0.5123546621772235   F   F   F
  0.6041632359145055  0.8333543461970692  0.4876463633917751   F   F   F
  0.8541632359145055  0.8333543461970692  0.4876463633917751   F   F   F
  0.4791632359145055  0.8333543461970692  0.5617712597481344   F   F   F
  0.7291632359145055  0.8333543461970692  0.5617712597481344   F   F   F
  0.5218784749787559  0.1652058592804977  0.5885863457088334   T   T   T
  0.2713632042004477  0.1668915012125467  0.5884404240839345   T   T   T
  0.9791632359145055  0.8333543461970692  0.5617712597481344   F   F   F
  0.2291632359145055  0.8333543461970692  0.5617712597481344   F   F   F
  0.3546863132772344  0.8281468811965951  0.6344293033292203   T   T   T
  0.1101198092393929  0.8305135408242208  0.6341706530988844   T   T   T
  0.8643357203201987  0.8344917902468794  0.6354786154294487   T   T   T
  0.5983807866093400  0.8305468413903441  0.6368505020868156   T   T   T
  0.5635240506413695  0.4969196929350730  0.6114894952522363   T   T   T
  0.8133413255923259  0.4997605932195128  0.6119257927905437   T   T   T
  0.0646154313489049  0.4975314928304542  0.6113145742069577   T   T   T
  0.3142766051082404  0.4966192097892943  0.6119757760958251   T   T   T
  0.7711030511073744  0.1678169874032136  0.5883939279792401   T   T   T
  0.0200590296935133  0.1679288551482685  0.5884567781374983   T   T   T
 
  0.00000000E+00  0.00000000E+00  0.00000000E+00
  0.00000000E+00  0.00000000E+00  0.00000000E+00
  0.00000000E+00  0.00000000E+00  0.00000000E+00
  0.00000000E+00  0.00000000E+00  0.00000000E+00
  0.00000000E+00  0.00000000E+00  0.00000000E+00
  0.00000000E+00  0.00000000E+00  0.00000000E+00
  0.00000000E+00  0.00000000E+00  0.00000000E+00
  0.00000000E+00  0.00000000E+00  0.00000000E+00
  0.00000000E+00  0.00000000E+00  0.00000000E+00
  0.00000000E+00  0.00000000E+00  0.00000000E+00
  0.00000000E+00  0.00000000E+00  0.00000000E+00
  0.00000000E+00  0.00000000E+00  0.00000000E+00
  0.00000000E+00  0.00000000E+00  0.00000000E+00
  0.00000000E+00  0.00000000E+00  0.00000000E+00
  0.00000000E+00  0.00000000E+00  0.00000000E+00
  0.00000000E+00  0.00000000E+00  0.00000000E+00
  0.00000000E+00  0.00000000E+00  0.00000000E+00
  0.00000000E+00  0.00000000E+00  0.00000000E+00
  0.00000000E+00  0.00000000E+00  0.00000000E+00
  0.00000000E+00  0.00000000E+00  0.00000000E+00
  0.00000000E+00  0.00000000E+00  0.00000000E+00
  0.00000000E+00  0.00000000E+00  0.00000000E+00
  0.00000000E+00  0.00000000E+00  0.00000000E+00
  0.00000000E+00  0.00000000E+00  0.00000000E+00
  0.00000000E+00  0.00000000E+00  0.00000000E+00
  0.00000000E+00  0.00000000E+00  0.00000000E+00
  0.00000000E+00  0.00000000E+00  0.00000000E+00
  0.00000000E+00  0.00000000E+00  0.00000000E+00
  0.00000000E+00  0.00000000E+00  0.00000000E+00
  0.00000000E+00  0.00000000E+00  0.00000000E+00
  0.00000000E+00  0.00000000E+00  0.00000000E+00
  0.00000000E+00  0.00000000E+00  0.00000000E+00
  0.00000000E+00  0.00000000E+00  0.00000000E+00
  0.00000000E+00  0.00000000E+00  0.00000000E+00
  0.00000000E+00  0.00000000E+00  0.00000000E+00
  0.00000000E+00  0.00000000E+00  0.00000000E+00
  0.00000000E+00  0.00000000E+00  0.00000000E+00
  0.00000000E+00  0.00000000E+00  0.00000000E+00
  0.00000000E+00  0.00000000E+00  0.00000000E+00
  0.00000000E+00  0.00000000E+00  0.00000000E+00
  0.00000000E+00  0.00000000E+00  0.00000000E+00
  0.00000000E+00  0.00000000E+00  0.00000000E+00
  0.00000000E+00  0.00000000E+00  0.00000000E+00
  0.00000000E+00  0.00000000E+00  0.00000000E+00
  0.00000000E+00  0.00000000E+00  0.00000000E+00
  0.00000000E+00  0.00000000E+00  0.00000000E+00
  0.00000000E+00  0.00000000E+00  0.00000000E+00
  0.00000000E+00  0.00000000E+00  0.00000000E+00
  0.00000000E+00  0.00000000E+00  0.00000000E+00
  0.00000000E+00  0.00000000E+00  0.00000000E+00
  0.00000000E+00  0.00000000E+00  0.00000000E+00
  0.00000000E+00  0.00000000E+00  0.00000000E+00
  0.00000000E+00  0.00000000E+00  0.00000000E+00
  0.00000000E+00  0.00000000E+00  0.00000000E+00
  0.00000000E+00  0.00000000E+00  0.00000000E+00
  0.00000000E+00  0.00000000E+00  0.00000000E+00
  0.00000000E+00  0.00000000E+00  0.00000000E+00
  0.00000000E+00  0.00000000E+00  0.00000000E+00
