 H  C  O Cu                             
   1.00000000000000     
    10.2710469276006560    0.0000000000000000    0.0000000000000006
     2.5677617319001635    6.2897060242006209    0.0000000000000005
     0.0000000000000000    0.0000000000000000   32.6149543968023465
   H    C    O    Cu
     2     4     4    48
Selective dynamics
Direct
  0.2019170650520123  0.1685109717259641  0.2615707346995661   T   T   T
  0.8267241753796121  0.8249465022767726  0.7384322036709956   T   T   T
  0.8162364655086942  0.8274488231109003  0.6794426079287692   T   T   T
  0.2123930532244803  0.1660285718764410  0.3205435079723378   T   T   T
  0.6727667663627835  0.8270381397479630  0.6830908614747574   T   T   T
  0.3557967429909624  0.1664529161199293  0.3169117977467061   T   T   T
  0.1437957853209420  0.1652064827285608  0.2851225327343943   T   T   T
  0.4145556003441228  0.1599733636231926  0.2831781634413329   T   T   T
  0.6140192805296494  0.8334689092850036  0.7168249508477252   T   T   T
  0.8847856732483149  0.8282792074377526  0.7148597306377554   T   T   T
  0.1493136867233947  0.1636921458572956  0.3750713338195351   T   T   T
  0.4175234871953106  0.1653727315391929  0.3736379439356716   T   T   T
  0.6995721404673597  0.5013844520758873  0.3969630546170360   T   T   T
  0.9495708376698417  0.5000938384880851  0.3977355848871512   T   T   T
  0.6601512422532071  0.1698617797725158  0.3764624469625155   T   T   T
  0.9035108676366903  0.1682795907801543  0.3766929494609376   T   T   T
  0.3268102038023102  0.4967576674194092  0.4659090909090935   F   F   F
  0.0768102038023102  0.4967576674194092  0.4659090909090935   F   F   F
  0.5768102038023102  0.4967576674194092  0.4659090909090935   F   F   F
  0.8268102038023102  0.4967576674194092  0.4659090909090935   F   F   F
  0.3684768704689745  0.8300910007527449  0.4886363636363669   F   F   F
  0.1184768704689745  0.8300910007527449  0.4886363636363669   F   F   F
  0.2014118124168637  0.4962910357242159  0.3971184265065168   T   T   T
  0.4509319244499210  0.4997291404938367  0.3975267570078901   T   T   T
  0.2430780975761609  0.8297534756370902  0.4185634490140614   T   T   T
  0.7428233726463287  0.8306255528604054  0.4185704446323664   T   T   T
  0.9943610758867525  0.8292107750941813  0.4184313533076819   T   T   T
  0.4920735688515648  0.8320258090466729  0.4185009390376560   T   T   T
  0.2851435371356459  0.1634243340860735  0.4431818181818201   F   F   F
  0.5351435371356459  0.1634243340860735  0.4431818181818201   F   F   F
  0.0351435371356459  0.1634243340860735  0.4431818181818201   F   F   F
  0.7851435371356459  0.1634243340860735  0.4431818181818201   F   F   F
  0.7018102038023102  0.4967576674194092  0.5340909090909065   F   F   F
  0.9518102038023102  0.4967576674194092  0.5340909090909065   F   F   F
  0.2018102038023102  0.4967576674194092  0.5340909090909065   F   F   F
  0.4518102038023102  0.4967576674194092  0.5340909090909065   F   F   F
  0.6601435371356459  0.1634243340860735  0.5113636363636331   F   F   F
  0.4101435371356459  0.1634243340860735  0.5113636363636331   F   F   F
  0.1601435371356459  0.1634243340860735  0.5113636363636331   F   F   F
  0.9101435371356459  0.1634243340860735  0.5113636363636331   F   F   F
  0.6184768704689745  0.8300910007527449  0.4886363636363669   F   F   F
  0.8684768704689745  0.8300910007527449  0.4886363636363669   F   F   F
  0.4934768704689745  0.8300910007527449  0.5568181818181799   F   F   F
  0.7434768704689745  0.8300910007527449  0.5568181818181799   F   F   F
  0.5364985627292318  0.1614667880312089  0.5814996491037286   T   T   T
  0.2857566270433757  0.1628813409670929  0.5814368407594019   T   T   T
  0.9934768704689745  0.8300910007527449  0.5568181818181799   F   F   F
  0.2434768704689745  0.8300910007527449  0.5568181818181799   F   F   F
  0.3684222453788929  0.8236069634523999  0.6235337151795408   T   T   T
  0.1250493578114279  0.8252060088368752  0.6233072141450763   T   T   T
  0.8791888349218617  0.8298856379595901  0.6249368501749880   T   T   T
  0.6110127286430037  0.8281205811682530  0.6263724450557908   T   T   T
  0.5777149096659536  0.4937171016129174  0.6024768725381450   T   T   T
  0.8272457383848796  0.4972252070635410  0.6028768204107978   T   T   T
  0.0790066809421984  0.4934338260209659  0.6022674079088099   T   T   T
  0.3289865945449754  0.4921594234294679  0.6030301647433983   T   T   T
  0.7855264752935111  0.1637633032229660  0.5814338999977923   T   T   T
  0.0342921144544191  0.1642667792540803  0.5815791792806811   T   T   T
 
  0.00000000E+00  0.00000000E+00  0.00000000E+00
  0.00000000E+00  0.00000000E+00  0.00000000E+00
  0.00000000E+00  0.00000000E+00  0.00000000E+00
  0.00000000E+00  0.00000000E+00  0.00000000E+00
  0.00000000E+00  0.00000000E+00  0.00000000E+00
  0.00000000E+00  0.00000000E+00  0.00000000E+00
  0.00000000E+00  0.00000000E+00  0.00000000E+00
  0.00000000E+00  0.00000000E+00  0.00000000E+00
  0.00000000E+00  0.00000000E+00  0.00000000E+00
  0.00000000E+00  0.00000000E+00  0.00000000E+00
  0.00000000E+00  0.00000000E+00  0.00000000E+00
  0.00000000E+00  0.00000000E+00  0.00000000E+00
  0.00000000E+00  0.00000000E+00  0.00000000E+00
  0.00000000E+00  0.00000000E+00  0.00000000E+00
  0.00000000E+00  0.00000000E+00  0.00000000E+00
  0.00000000E+00  0.00000000E+00  0.00000000E+00
  0.00000000E+00  0.00000000E+00  0.00000000E+00
  0.00000000E+00  0.00000000E+00  0.00000000E+00
  0.00000000E+00  0.00000000E+00  0.00000000E+00
  0.00000000E+00  0.00000000E+00  0.00000000E+00
  0.00000000E+00  0.00000000E+00  0.00000000E+00
  0.00000000E+00  0.00000000E+00  0.00000000E+00
  0.00000000E+00  0.00000000E+00  0.00000000E+00
  0.00000000E+00  0.00000000E+00  0.00000000E+00
  0.00000000E+00  0.00000000E+00  0.00000000E+00
  0.00000000E+00  0.00000000E+00  0.00000000E+00
  0.00000000E+00  0.00000000E+00  0.00000000E+00
  0.00000000E+00  0.00000000E+00  0.00000000E+00
  0.00000000E+00  0.00000000E+00  0.00000000E+00
  0.00000000E+00  0.00000000E+00  0.00000000E+00
  0.00000000E+00  0.00000000E+00  0.00000000E+00
  0.00000000E+00  0.00000000E+00  0.00000000E+00
  0.00000000E+00  0.00000000E+00  0.00000000E+00
  0.00000000E+00  0.00000000E+00  0.00000000E+00
  0.00000000E+00  0.00000000E+00  0.00000000E+00
  0.00000000E+00  0.00000000E+00  0.00000000E+00
  0.00000000E+00  0.00000000E+00  0.00000000E+00
  0.00000000E+00  0.00000000E+00  0.00000000E+00
  0.00000000E+00  0.00000000E+00  0.00000000E+00
  0.00000000E+00  0.00000000E+00  0.00000000E+00
  0.00000000E+00  0.00000000E+00  0.00000000E+00
  0.00000000E+00  0.00000000E+00  0.00000000E+00
  0.00000000E+00  0.00000000E+00  0.00000000E+00
  0.00000000E+00  0.00000000E+00  0.00000000E+00
  0.00000000E+00  0.00000000E+00  0.00000000E+00
  0.00000000E+00  0.00000000E+00  0.00000000E+00
  0.00000000E+00  0.00000000E+00  0.00000000E+00
  0.00000000E+00  0.00000000E+00  0.00000000E+00
  0.00000000E+00  0.00000000E+00  0.00000000E+00
  0.00000000E+00  0.00000000E+00  0.00000000E+00
  0.00000000E+00  0.00000000E+00  0.00000000E+00
  0.00000000E+00  0.00000000E+00  0.00000000E+00
  0.00000000E+00  0.00000000E+00  0.00000000E+00
  0.00000000E+00  0.00000000E+00  0.00000000E+00
  0.00000000E+00  0.00000000E+00  0.00000000E+00
  0.00000000E+00  0.00000000E+00  0.00000000E+00
  0.00000000E+00  0.00000000E+00  0.00000000E+00
  0.00000000E+00  0.00000000E+00  0.00000000E+00
