Cu  O  C                                
   1.00000000000000     
    10.2710469276006560    0.0000000000000000    0.0000000000000006
     2.5677617319001635    6.2897060242006209    0.0000000000000005
     0.0000000000000000    0.0000000000000000   30.0000000000000000
   Cu   O    C 
    48     2     2
Selective dynamics
Direct
  0.4791666666666643  0.8333327585702861  0.5617662564797072   F   F   F
  0.7291666666666643  0.8333327585702861  0.5617662564797072   F   F   F
  0.9791666666666643  0.8333327585702861  0.5617662564797072   F   F   F
  0.2291666666666643  0.8333327585702861  0.5617662564797072   F   F   F
  0.5628289447984378  0.4982266592199343  0.6112378886258345   T   T   T
  0.8136503155128110  0.4974864090312777  0.6113572681457261   T   T   T
  0.0636690493505976  0.4975386668722159  0.6120025521832365   T   T   T
  0.3131953706352602  0.4979259239254817  0.6119914315170002   T   T   T
  0.7704121666971111  0.1678659090967549  0.5884154971484471   T   T   T
  0.0209988780356960  0.1674715220711401  0.5884654395173379   T   T   T
  0.2710428775950862  0.1678747507959897  0.5884375963195951   T   T   T
  0.5206339030774039  0.1680007705184970  0.5879629274436876   T   T   T
  0.6039775563607935  0.8351685318780750  0.6366581821938501   T   T   T
  0.8568336491512223  0.8313998301699693  0.6340088034703988   T   T   T
  0.1051884174737254  0.8305861796093240  0.6345653469164534   T   T   T
  0.3530793902277264  0.8306301969644407  0.6341681726303785   T   T   T
  0.8125000000000000  0.4999994252369504  0.4629330613378855   F   F   F
  0.0625000000000000  0.4999994252369504  0.4629330613378855   F   F   F
  0.3125000000000000  0.4999994252369504  0.4629330613378855   F   F   F
  0.5625000000000000  0.4999994252369504  0.4629330613378855   F   F   F
  0.8958333333333357  0.1666660919036147  0.5123496589087893   F   F   F
  0.1458333333333357  0.1666660919036147  0.5123496589087893   F   F   F
  0.3958333333333357  0.1666660919036147  0.5123496589087893   F   F   F
  0.6458333333333357  0.1666660919036147  0.5123496589087893   F   F   F
  0.6041666666666643  0.8333327585702861  0.4876413601233409   F   F   F
  0.8541666666666643  0.8333327585702861  0.4876413601233409   F   F   F
  0.1041666666666643  0.8333327585702861  0.4876413601233409   F   F   F
  0.3541666666666643  0.8333327585702861  0.4876413601233409   F   F   F
  0.6875000000000000  0.4999994252369504  0.5370579576942447   F   F   F
  0.9375000000000000  0.4999994252369504  0.5370579576942447   F   F   F
  0.1875000000000000  0.4999994252369504  0.5370579576942447   F   F   F
  0.4375000000000000  0.4999994252369504  0.5370579576942447   F   F   F
  0.6469441369604777  0.1693476916021384  0.3658222778853658   T   T   T
  0.8948345706613784  0.1693526740311322  0.3654258156990258   T   T   T
  0.1431887969056913  0.1685707765360295  0.3659845780253119   T   T   T
  0.3960231385232205  0.1648529385341491  0.3633349867050876   T   T   T
  0.7289642484944155  0.8321053432180682  0.4115534513180811   T   T   T
  0.9790056852253526  0.8325018897833331  0.4115315642655866   T   T   T
  0.2295901105859218  0.8321213459240490  0.4115788439428905   T   T   T
  0.4793757294075991  0.8319871424245492  0.4120250987292814   T   T   T
  0.6868334017330632  0.5020430816275181  0.3879973788368533   T   T   T
  0.9363505421234595  0.5024369862248351  0.3879860359160766   T   T   T
  0.1863596594032958  0.5025141954389726  0.3886378187413481   T   T   T
  0.4371851794100464  0.5017789168205621  0.3887560398128032   T   T   T
  0.5208333333333357  0.1666660919036147  0.4382247625524229   F   F   F
  0.7708333333333357  0.1666660919036147  0.4382247625524229   F   F   F
  0.0208333333333357  0.1666660919036147  0.4382247625524229   F   F   F
  0.2708333333333357  0.1666660919036147  0.4382247625524229   F   F   F
  0.6041048340277110  0.8334875549751389  0.7379640493976912   T   T   T
  0.3958763264908057  0.1664827797961012  0.2620278310654197   T   T   T
  0.6023780836097058  0.8412458143436223  0.6997498373566395   T   T   T
  0.3976032421107361  0.1587586270455697  0.3002441505488345   T   T   T
 
  0.00000000E+00  0.00000000E+00  0.00000000E+00
  0.00000000E+00  0.00000000E+00  0.00000000E+00
  0.00000000E+00  0.00000000E+00  0.00000000E+00
  0.00000000E+00  0.00000000E+00  0.00000000E+00
  0.00000000E+00  0.00000000E+00  0.00000000E+00
  0.00000000E+00  0.00000000E+00  0.00000000E+00
  0.00000000E+00  0.00000000E+00  0.00000000E+00
  0.00000000E+00  0.00000000E+00  0.00000000E+00
  0.00000000E+00  0.00000000E+00  0.00000000E+00
  0.00000000E+00  0.00000000E+00  0.00000000E+00
  0.00000000E+00  0.00000000E+00  0.00000000E+00
  0.00000000E+00  0.00000000E+00  0.00000000E+00
  0.00000000E+00  0.00000000E+00  0.00000000E+00
  0.00000000E+00  0.00000000E+00  0.00000000E+00
  0.00000000E+00  0.00000000E+00  0.00000000E+00
  0.00000000E+00  0.00000000E+00  0.00000000E+00
  0.00000000E+00  0.00000000E+00  0.00000000E+00
  0.00000000E+00  0.00000000E+00  0.00000000E+00
  0.00000000E+00  0.00000000E+00  0.00000000E+00
  0.00000000E+00  0.00000000E+00  0.00000000E+00
  0.00000000E+00  0.00000000E+00  0.00000000E+00
  0.00000000E+00  0.00000000E+00  0.00000000E+00
  0.00000000E+00  0.00000000E+00  0.00000000E+00
  0.00000000E+00  0.00000000E+00  0.00000000E+00
  0.00000000E+00  0.00000000E+00  0.00000000E+00
  0.00000000E+00  0.00000000E+00  0.00000000E+00
  0.00000000E+00  0.00000000E+00  0.00000000E+00
  0.00000000E+00  0.00000000E+00  0.00000000E+00
  0.00000000E+00  0.00000000E+00  0.00000000E+00
  0.00000000E+00  0.00000000E+00  0.00000000E+00
  0.00000000E+00  0.00000000E+00  0.00000000E+00
  0.00000000E+00  0.00000000E+00  0.00000000E+00
  0.00000000E+00  0.00000000E+00  0.00000000E+00
  0.00000000E+00  0.00000000E+00  0.00000000E+00
  0.00000000E+00  0.00000000E+00  0.00000000E+00
  0.00000000E+00  0.00000000E+00  0.00000000E+00
  0.00000000E+00  0.00000000E+00  0.00000000E+00
  0.00000000E+00  0.00000000E+00  0.00000000E+00
  0.00000000E+00  0.00000000E+00  0.00000000E+00
  0.00000000E+00  0.00000000E+00  0.00000000E+00
  0.00000000E+00  0.00000000E+00  0.00000000E+00
  0.00000000E+00  0.00000000E+00  0.00000000E+00
  0.00000000E+00  0.00000000E+00  0.00000000E+00
  0.00000000E+00  0.00000000E+00  0.00000000E+00
  0.00000000E+00  0.00000000E+00  0.00000000E+00
  0.00000000E+00  0.00000000E+00  0.00000000E+00
  0.00000000E+00  0.00000000E+00  0.00000000E+00
  0.00000000E+00  0.00000000E+00  0.00000000E+00
  0.00000000E+00  0.00000000E+00  0.00000000E+00
  0.00000000E+00  0.00000000E+00  0.00000000E+00
  0.00000000E+00  0.00000000E+00  0.00000000E+00
  0.00000000E+00  0.00000000E+00  0.00000000E+00
