 H  C  O                                
   1.00000000000000     
    10.0000000000000000    0.0000000000000000    0.0000000000000000
     0.0000000000000000   10.0000000000000000    0.0000000000000000
     0.0000000000000000    0.0000000000000000   10.0000000000000000
   H    C    O 
     1     1     2
Direct
  0.4130110142131625  0.5108664706960008  0.5853485279154257
  0.5012362584832293  0.4873504047943568  0.4179653293782978
  0.6162433336510981  0.4913836031606769  0.4505699246964222
  0.3897259973655542  0.4986420264325633  0.4902754355217641
 
  0.00000000E+00  0.00000000E+00  0.00000000E+00
  0.00000000E+00  0.00000000E+00  0.00000000E+00
  0.00000000E+00  0.00000000E+00  0.00000000E+00
  0.00000000E+00  0.00000000E+00  0.00000000E+00
