 H  C  O 
 1.0000000000000000
    10.0000000000000000    0.0000000000000000    0.0000000000000000
     0.0000000000000000   10.0000000000000000    0.0000000000000000
     0.0000000000000000    0.0000000000000000   10.0000000000000000
 H   C   O  
   1   1   2
Cartesian
  4.2189576543992882  5.1166290276387496  5.8570123878306646
  4.9832083827311457  4.8833709723612522  4.1429876121693336
  6.1561136749709702  4.9145396172377689  4.5706270056259157
  3.8438863250290307  4.9678854335981928  4.8709651694932106
