 H  C Cu                                
   1.00000000000000     
    10.2710469276006560    0.0000000000000000    0.0000000000000006
     2.5677617319001635    6.2897060242006209    0.0000000000000005
     0.0000000000000000    0.0000000000000000   32.6149543968023465
   H    C    Cu
     2     2    48
Selective dynamics
Direct
  0.2202803743184778  0.3807514854972448  0.3138079736756337   T   T   T
  0.8048519275852848  0.6184071723188637  0.6865574694876512   T   T   T
  0.2393752431048083  0.3250036016001065  0.3456269977529637   T   T   T
  0.7872971763122874  0.6712708547071904  0.6545318008839082   T   T   T
  0.1534954343630939  0.1598225247940834  0.3744531674552594   T   T   T
  0.4123145195560896  0.1669634201609648  0.3739679099516762   T   T   T
  0.6594143528276873  0.1661908115114863  0.3766567203746842   T   T   T
  0.9063264138232098  0.1665656097011462  0.3767503284767565   T   T   T
  0.2432137858430724  0.8299642701747323  0.4191997776283816   T   T   T
  0.7435029933366488  0.8284639436107180  0.4182654635501425   T   T   T
  0.9941077758918536  0.8298111868081181  0.4185607725843054   T   T   T
  0.4940168113585561  0.8315605865552054  0.4183034354605871   T   T   T
  0.7009416157964783  0.4987445652184385  0.3965621545978542   T   T   T
  0.9500367039918071  0.4985624017224505  0.3969358797181151   T   T   T
  0.1984419930542872  0.5107148899173892  0.3933523582557733   T   T   T
  0.4525423752259479  0.4997716555563118  0.3974567111956888   T   T   T
  0.3268102038023102  0.4967576674194092  0.4659090909090935   F   F   F
  0.0768102038023102  0.4967576674194092  0.4659090909090935   F   F   F
  0.5768102038023102  0.4967576674194092  0.4659090909090935   F   F   F
  0.8268102038023102  0.4967576674194092  0.4659090909090935   F   F   F
  0.3684768704689745  0.8300910007527449  0.4886363636363669   F   F   F
  0.1184768704689745  0.8300910007527449  0.4886363636363669   F   F   F
  0.8684768704689745  0.8300910007527449  0.4886363636363669   F   F   F
  0.6184768704689745  0.8300910007527449  0.4886363636363669   F   F   F
  0.9101435371356459  0.1634243340860735  0.5113636363636331   F   F   F
  0.1601435371356459  0.1634243340860735  0.5113636363636331   F   F   F
  0.4101435371356459  0.1634243340860735  0.5113636363636331   F   F   F
  0.6601435371356459  0.1634243340860735  0.5113636363636331   F   F   F
  0.2851435371356459  0.1634243340860735  0.4431818181818201   F   F   F
  0.5351435371356459  0.1634243340860735  0.4431818181818201   F   F   F
  0.0351435371356459  0.1634243340860735  0.4431818181818201   F   F   F
  0.7851435371356459  0.1634243340860735  0.4431818181818201   F   F   F
  0.7018102038023102  0.4967576674194092  0.5340909090909065   F   F   F
  0.9518102038023102  0.4967576674194092  0.5340909090909065   F   F   F
  0.2018102038023102  0.4967576674194092  0.5340909090909065   F   F   F
  0.4518102038023102  0.4967576674194092  0.5340909090909065   F   F   F
  0.4934768704689745  0.8300910007527449  0.5568181818181799   F   F   F
  0.7434768704689745  0.8300910007527449  0.5568181818181799   F   F   F
  0.9934768704689745  0.8300910007527449  0.5568181818181799   F   F   F
  0.2434768704689745  0.8300910007527449  0.5568181818181799   F   F   F
  0.3277592488836178  0.4950266464267393  0.6034477611835497   T   T   T
  0.0786092779605306  0.4952237232706612  0.6030322210950514   T   T   T
  0.8299988273734664  0.4837027379372119  0.6070289494502755   T   T   T
  0.5761649589937744  0.4943293933373878  0.6025869447452293   T   T   T
  0.5346617701377122  0.1626565253222658  0.5815782498296477   T   T   T
  0.2852164145363754  0.1652290981339133  0.5817446768594642   T   T   T
  0.0343999292423960  0.1641811047473972  0.5814934053527081   T   T   T
  0.7855101023135264  0.1640041066365052  0.5808347961402419   T   T   T
  0.3687915269626955  0.8277348441099622  0.6233521433529177   T   T   T
  0.1220189395107712  0.8272339135563916  0.6232346633789841   T   T   T
  0.8748060431518435  0.8339723915467195  0.6255723387987077   T   T   T
  0.6151620906424491  0.8286632874060701  0.6259260485471828   T   T   T
 
  0.00000000E+00  0.00000000E+00  0.00000000E+00
  0.00000000E+00  0.00000000E+00  0.00000000E+00
  0.00000000E+00  0.00000000E+00  0.00000000E+00
  0.00000000E+00  0.00000000E+00  0.00000000E+00
  0.00000000E+00  0.00000000E+00  0.00000000E+00
  0.00000000E+00  0.00000000E+00  0.00000000E+00
  0.00000000E+00  0.00000000E+00  0.00000000E+00
  0.00000000E+00  0.00000000E+00  0.00000000E+00
  0.00000000E+00  0.00000000E+00  0.00000000E+00
  0.00000000E+00  0.00000000E+00  0.00000000E+00
  0.00000000E+00  0.00000000E+00  0.00000000E+00
  0.00000000E+00  0.00000000E+00  0.00000000E+00
  0.00000000E+00  0.00000000E+00  0.00000000E+00
  0.00000000E+00  0.00000000E+00  0.00000000E+00
  0.00000000E+00  0.00000000E+00  0.00000000E+00
  0.00000000E+00  0.00000000E+00  0.00000000E+00
  0.00000000E+00  0.00000000E+00  0.00000000E+00
  0.00000000E+00  0.00000000E+00  0.00000000E+00
  0.00000000E+00  0.00000000E+00  0.00000000E+00
  0.00000000E+00  0.00000000E+00  0.00000000E+00
  0.00000000E+00  0.00000000E+00  0.00000000E+00
  0.00000000E+00  0.00000000E+00  0.00000000E+00
  0.00000000E+00  0.00000000E+00  0.00000000E+00
  0.00000000E+00  0.00000000E+00  0.00000000E+00
  0.00000000E+00  0.00000000E+00  0.00000000E+00
  0.00000000E+00  0.00000000E+00  0.00000000E+00
  0.00000000E+00  0.00000000E+00  0.00000000E+00
  0.00000000E+00  0.00000000E+00  0.00000000E+00
  0.00000000E+00  0.00000000E+00  0.00000000E+00
  0.00000000E+00  0.00000000E+00  0.00000000E+00
  0.00000000E+00  0.00000000E+00  0.00000000E+00
  0.00000000E+00  0.00000000E+00  0.00000000E+00
  0.00000000E+00  0.00000000E+00  0.00000000E+00
  0.00000000E+00  0.00000000E+00  0.00000000E+00
  0.00000000E+00  0.00000000E+00  0.00000000E+00
  0.00000000E+00  0.00000000E+00  0.00000000E+00
  0.00000000E+00  0.00000000E+00  0.00000000E+00
  0.00000000E+00  0.00000000E+00  0.00000000E+00
  0.00000000E+00  0.00000000E+00  0.00000000E+00
  0.00000000E+00  0.00000000E+00  0.00000000E+00
  0.00000000E+00  0.00000000E+00  0.00000000E+00
  0.00000000E+00  0.00000000E+00  0.00000000E+00
  0.00000000E+00  0.00000000E+00  0.00000000E+00
  0.00000000E+00  0.00000000E+00  0.00000000E+00
  0.00000000E+00  0.00000000E+00  0.00000000E+00
  0.00000000E+00  0.00000000E+00  0.00000000E+00
  0.00000000E+00  0.00000000E+00  0.00000000E+00
  0.00000000E+00  0.00000000E+00  0.00000000E+00
  0.00000000E+00  0.00000000E+00  0.00000000E+00
  0.00000000E+00  0.00000000E+00  0.00000000E+00
  0.00000000E+00  0.00000000E+00  0.00000000E+00
  0.00000000E+00  0.00000000E+00  0.00000000E+00
