 H  C  O Cu                             
   1.00000000000000     
    10.2710469276006560    0.0000000000000000    0.0000000000000006
     2.5677617319001635    6.2897060242006209    0.0000000000000005
     0.0000000000000000    0.0000000000000000   32.6149543968023465
   H    C    O    Cu
     2     4     4    48
Selective dynamics
Direct
  0.1913643697355862  0.1675041802342318  0.2606259251811126   T   T   T
  0.8372363786895979  0.8259874634551201  0.7393743836238467   T   T   T
  0.8194298707240725  0.8313483682430062  0.6799319989815298   T   T   T
  0.2091613814034326  0.1621709958134910  0.3200677405448285   T   T   T
  0.6682164219506307  0.8309274012098403  0.6825732897083420   T   T   T
  0.3603872436389714  0.1625274469472867  0.3174273581402809   T   T   T
  0.1414128854888389  0.1673976311605371  0.2863821496670049   T   T   T
  0.4208607427256874  0.1570450106075995  0.2853101928806201   T   T   T
  0.6077356007118631  0.8364357929155989  0.7146903091112196   T   T   T
  0.8871778038096739  0.8261370015089408  0.7136163225399975   T   T   T
  0.1510690179272683  0.1613842349170763  0.3755488445419774   T   T   T
  0.4157685974463989  0.1645933299107356  0.3748569450661829   T   T   T
  0.7003874372141928  0.4994691600517049  0.3974534452285749   T   T   T
  0.9494662476816014  0.5002467251765207  0.3977737902435894   T   T   T
  0.6599501400715960  0.1654758209052130  0.3759539928099911   T   T   T
  0.9055596026455637  0.1635909295278478  0.3763335060540631   T   T   T
  0.3268102038023102  0.4967576674194092  0.4659090909090935   F   F   F
  0.0768102038023102  0.4967576674194092  0.4659090909090935   F   F   F
  0.5768102038023102  0.4967576674194092  0.4659090909090935   F   F   F
  0.8268102038023102  0.4967576674194092  0.4659090909090935   F   F   F
  0.3684768704689745  0.8300910007527449  0.4886363636363669   F   F   F
  0.1184768704689745  0.8300910007527449  0.4886363636363669   F   F   F
  0.2009861879156236  0.4974925978010842  0.3974410402187218   T   T   T
  0.4511505587332223  0.4992558828962678  0.3976153284396304   T   T   T
  0.2435262319344708  0.8290001696647570  0.4189611323149388   T   T   T
  0.7428267233702105  0.8302190494386229  0.4193274421786228   T   T   T
  0.9940711216640022  0.8294820031091394  0.4192161696063338   T   T   T
  0.4926636041125922  0.8304240448732776  0.4189597462643846   T   T   T
  0.2851435371356459  0.1634243340860735  0.4431818181818201   F   F   F
  0.5351435371356459  0.1634243340860735  0.4431818181818201   F   F   F
  0.0351435371356459  0.1634243340860735  0.4431818181818201   F   F   F
  0.7851435371356459  0.1634243340860735  0.4431818181818201   F   F   F
  0.7018102038023102  0.4967576674194092  0.5340909090909065   F   F   F
  0.9518102038023102  0.4967576674194092  0.5340909090909065   F   F   F
  0.2018102038023102  0.4967576674194092  0.5340909090909065   F   F   F
  0.4518102038023102  0.4967576674194092  0.5340909090909065   F   F   F
  0.6601435371356459  0.1634243340860735  0.5113636363636331   F   F   F
  0.4101435371356459  0.1634243340860735  0.5113636363636331   F   F   F
  0.1601435371356459  0.1634243340860735  0.5113636363636331   F   F   F
  0.9101435371356459  0.1634243340860735  0.5113636363636331   F   F   F
  0.6184768704689745  0.8300910007527449  0.4886363636363669   F   F   F
  0.8684768704689745  0.8300910007527449  0.4886363636363669   F   F   F
  0.4934768704689745  0.8300910007527449  0.5568181818181799   F   F   F
  0.7434768704689745  0.8300910007527449  0.5568181818181799   F   F   F
  0.5359030387074880  0.1630504656066335  0.5810457055763398   T   T   T
  0.2857403722580929  0.1632835647090803  0.5806727223206531   T   T   T
  0.9934768704689745  0.8300910007527449  0.5568181818181799   F   F   F
  0.2434768704689745  0.8300910007527449  0.5568181818181799   F   F   F
  0.3686898525394317  0.8279140282778451  0.6240444600606007   T   T   T
  0.1229717785732559  0.8299847324558250  0.6236591259248982   T   T   T
  0.8775032323208515  0.8321548277050730  0.6244475455006209   T   T   T
  0.6128504536779028  0.8288567829431472  0.6251413330336770   T   T   T
  0.5775099913844322  0.4941524384777821  0.6023931188882238   T   T   T
  0.8276760649892814  0.4959860011427292  0.6025608196870738   T   T   T
  0.0791204299497756  0.4932606433698676  0.6022340771406477   T   T   T
  0.3282130674408441  0.4940091777415853  0.6025571488930322   T   T   T
  0.7850695750004735  0.1645232877934180  0.5810329619171044   T   T   T
  0.0345455810243361  0.1640284024541372  0.5807723110906027   T   T   T
 
  0.00000000E+00  0.00000000E+00  0.00000000E+00
  0.00000000E+00  0.00000000E+00  0.00000000E+00
  0.00000000E+00  0.00000000E+00  0.00000000E+00
  0.00000000E+00  0.00000000E+00  0.00000000E+00
  0.00000000E+00  0.00000000E+00  0.00000000E+00
  0.00000000E+00  0.00000000E+00  0.00000000E+00
  0.00000000E+00  0.00000000E+00  0.00000000E+00
  0.00000000E+00  0.00000000E+00  0.00000000E+00
  0.00000000E+00  0.00000000E+00  0.00000000E+00
  0.00000000E+00  0.00000000E+00  0.00000000E+00
  0.00000000E+00  0.00000000E+00  0.00000000E+00
  0.00000000E+00  0.00000000E+00  0.00000000E+00
  0.00000000E+00  0.00000000E+00  0.00000000E+00
  0.00000000E+00  0.00000000E+00  0.00000000E+00
  0.00000000E+00  0.00000000E+00  0.00000000E+00
  0.00000000E+00  0.00000000E+00  0.00000000E+00
  0.00000000E+00  0.00000000E+00  0.00000000E+00
  0.00000000E+00  0.00000000E+00  0.00000000E+00
  0.00000000E+00  0.00000000E+00  0.00000000E+00
  0.00000000E+00  0.00000000E+00  0.00000000E+00
  0.00000000E+00  0.00000000E+00  0.00000000E+00
  0.00000000E+00  0.00000000E+00  0.00000000E+00
  0.00000000E+00  0.00000000E+00  0.00000000E+00
  0.00000000E+00  0.00000000E+00  0.00000000E+00
  0.00000000E+00  0.00000000E+00  0.00000000E+00
  0.00000000E+00  0.00000000E+00  0.00000000E+00
  0.00000000E+00  0.00000000E+00  0.00000000E+00
  0.00000000E+00  0.00000000E+00  0.00000000E+00
  0.00000000E+00  0.00000000E+00  0.00000000E+00
  0.00000000E+00  0.00000000E+00  0.00000000E+00
  0.00000000E+00  0.00000000E+00  0.00000000E+00
  0.00000000E+00  0.00000000E+00  0.00000000E+00
  0.00000000E+00  0.00000000E+00  0.00000000E+00
  0.00000000E+00  0.00000000E+00  0.00000000E+00
  0.00000000E+00  0.00000000E+00  0.00000000E+00
  0.00000000E+00  0.00000000E+00  0.00000000E+00
  0.00000000E+00  0.00000000E+00  0.00000000E+00
  0.00000000E+00  0.00000000E+00  0.00000000E+00
  0.00000000E+00  0.00000000E+00  0.00000000E+00
  0.00000000E+00  0.00000000E+00  0.00000000E+00
  0.00000000E+00  0.00000000E+00  0.00000000E+00
  0.00000000E+00  0.00000000E+00  0.00000000E+00
  0.00000000E+00  0.00000000E+00  0.00000000E+00
  0.00000000E+00  0.00000000E+00  0.00000000E+00
  0.00000000E+00  0.00000000E+00  0.00000000E+00
  0.00000000E+00  0.00000000E+00  0.00000000E+00
  0.00000000E+00  0.00000000E+00  0.00000000E+00
  0.00000000E+00  0.00000000E+00  0.00000000E+00
  0.00000000E+00  0.00000000E+00  0.00000000E+00
  0.00000000E+00  0.00000000E+00  0.00000000E+00
  0.00000000E+00  0.00000000E+00  0.00000000E+00
  0.00000000E+00  0.00000000E+00  0.00000000E+00
  0.00000000E+00  0.00000000E+00  0.00000000E+00
  0.00000000E+00  0.00000000E+00  0.00000000E+00
  0.00000000E+00  0.00000000E+00  0.00000000E+00
  0.00000000E+00  0.00000000E+00  0.00000000E+00
  0.00000000E+00  0.00000000E+00  0.00000000E+00
  0.00000000E+00  0.00000000E+00  0.00000000E+00
