 C  O Cu                                
   1.00000000000000     
    10.2710469276006560    0.0000000000000000    0.0000000000000006
     2.5677617319001635    6.2897060242006209    0.0000000000000005
     0.0000000000000000    0.0000000000000000   32.6149543968023465
   C    O    Cu
     4     4    48
Selective dynamics
Direct
  0.1933671552090447  0.1477305624268255  0.3154817822724570   T   T   T
  0.3720979299274473  0.1522649759884492  0.3149842950127336   T   T   T
  0.6519144449480901  0.8459319775161560  0.6846792947648954   T   T   T
  0.8310419969731913  0.8482998970353034  0.6845905627160415   T   T   T
  0.1407365427068202  0.1410945705782328  0.2826006176968852   T   T   T
  0.4188756105550733  0.1610894549370471  0.2812710222330766   T   T   T
  0.6020312731866805  0.8430273308043696  0.7181882927827916   T   T   T
  0.8823525195316737  0.8552619720785560  0.7176652355150654   T   T   T
  0.1462588629305964  0.1674588449177473  0.3736159874165751   T   T   T
  0.4168480756522944  0.1676687092833936  0.3728043116697711   T   T   T
  0.6596437333968669  0.1747622975404270  0.3766435106576407   T   T   T
  0.9017316188865926  0.1737448183836950  0.3767616457821906   T   T   T
  0.6981357213853996  0.5050216783138752  0.3967374209403928   T   T   T
  0.9488524311233751  0.5022380868641654  0.3972288005049124   T   T   T
  0.2010682287365947  0.4962408757627100  0.3972698915779121   T   T   T
  0.4494716272470202  0.5019264992307116  0.3971809262096944   T   T   T
  0.3268102038023102  0.4967576674194092  0.4659090909090935   F   F   F
  0.0768102038023102  0.4967576674194092  0.4659090909090935   F   F   F
  0.5768102038023102  0.4967576674194092  0.4659090909090935   F   F   F
  0.8268102038023102  0.4967576674194092  0.4659090909090935   F   F   F
  0.3684768704689745  0.8300910007527449  0.4886363636363669   F   F   F
  0.1184768704689745  0.8300910007527449  0.4886363636363669   F   F   F
  0.8684768704689745  0.8300910007527449  0.4886363636363669   F   F   F
  0.6184768704689745  0.8300910007527449  0.4886363636363669   F   F   F
  0.2423536907647212  0.8315201377644825  0.4177699325816849   T   T   T
  0.7421962620227708  0.8325870336671680  0.4178228670157952   T   T   T
  0.9935001361578499  0.8297974168270652  0.4177368849753648   T   T   T
  0.4910637794042498  0.8340076303132570  0.4178308829578703   T   T   T
  0.2851435371356459  0.1634243340860735  0.4431818181818201   F   F   F
  0.5351435371356459  0.1634243340860735  0.4431818181818201   F   F   F
  0.0351435371356459  0.1634243340860735  0.4431818181818201   F   F   F
  0.7851435371356459  0.1634243340860735  0.4431818181818201   F   F   F
  0.7018102038023102  0.4967576674194092  0.5340909090909065   F   F   F
  0.9518102038023102  0.4967576674194092  0.5340909090909065   F   F   F
  0.2018102038023102  0.4967576674194092  0.5340909090909065   F   F   F
  0.4518102038023102  0.4967576674194092  0.5340909090909065   F   F   F
  0.6601435371356459  0.1634243340860735  0.5113636363636331   F   F   F
  0.4101435371356459  0.1634243340860735  0.5113636363636331   F   F   F
  0.1601435371356459  0.1634243340860735  0.5113636363636331   F   F   F
  0.9101435371356459  0.1634243340860735  0.5113636363636331   F   F   F
  0.4934768704689745  0.8300910007527449  0.5568181818181799   F   F   F
  0.7434768704689745  0.8300910007527449  0.5568181818181799   F   F   F
  0.9934768704689745  0.8300910007527449  0.5568181818181799   F   F   F
  0.2434768704689745  0.8300910007527449  0.5568181818181799   F   F   F
  0.5370994501824828  0.1599877441003310  0.5820248716981469   T   T   T
  0.2859499462903171  0.1610449335657888  0.5821882888915375   T   T   T
  0.0348089638731395  0.1638097411946544  0.5822941274353959   T   T   T
  0.7860259515973834  0.1618714870371826  0.5822463808747971   T   T   T
  0.3679425336723160  0.8185508319839797  0.6233077859982546   T   T   T
  0.1259126295891560  0.8198140554580380  0.6232354301590258   T   T   T
  0.8811363473454111  0.8260458447143693  0.6266351120774009   T   T   T
  0.6102687237700146  0.8260602515813329  0.6267994423448601   T   T   T
  0.5785310309090289  0.4913545941193374  0.6028031215695175   T   T   T
  0.8270296611768352  0.4973347500107453  0.6027543428509450   T   T   T
  0.0789600904117181  0.4917267891544339  0.6028108650658083   T   T   T
  0.3296553132442936  0.4884953091307978  0.6032445634698637   T   T   T
 
  0.00000000E+00  0.00000000E+00  0.00000000E+00
  0.00000000E+00  0.00000000E+00  0.00000000E+00
  0.00000000E+00  0.00000000E+00  0.00000000E+00
  0.00000000E+00  0.00000000E+00  0.00000000E+00
  0.00000000E+00  0.00000000E+00  0.00000000E+00
  0.00000000E+00  0.00000000E+00  0.00000000E+00
  0.00000000E+00  0.00000000E+00  0.00000000E+00
  0.00000000E+00  0.00000000E+00  0.00000000E+00
  0.00000000E+00  0.00000000E+00  0.00000000E+00
  0.00000000E+00  0.00000000E+00  0.00000000E+00
  0.00000000E+00  0.00000000E+00  0.00000000E+00
  0.00000000E+00  0.00000000E+00  0.00000000E+00
  0.00000000E+00  0.00000000E+00  0.00000000E+00
  0.00000000E+00  0.00000000E+00  0.00000000E+00
  0.00000000E+00  0.00000000E+00  0.00000000E+00
  0.00000000E+00  0.00000000E+00  0.00000000E+00
  0.00000000E+00  0.00000000E+00  0.00000000E+00
  0.00000000E+00  0.00000000E+00  0.00000000E+00
  0.00000000E+00  0.00000000E+00  0.00000000E+00
  0.00000000E+00  0.00000000E+00  0.00000000E+00
  0.00000000E+00  0.00000000E+00  0.00000000E+00
  0.00000000E+00  0.00000000E+00  0.00000000E+00
  0.00000000E+00  0.00000000E+00  0.00000000E+00
  0.00000000E+00  0.00000000E+00  0.00000000E+00
  0.00000000E+00  0.00000000E+00  0.00000000E+00
  0.00000000E+00  0.00000000E+00  0.00000000E+00
  0.00000000E+00  0.00000000E+00  0.00000000E+00
  0.00000000E+00  0.00000000E+00  0.00000000E+00
  0.00000000E+00  0.00000000E+00  0.00000000E+00
  0.00000000E+00  0.00000000E+00  0.00000000E+00
  0.00000000E+00  0.00000000E+00  0.00000000E+00
  0.00000000E+00  0.00000000E+00  0.00000000E+00
  0.00000000E+00  0.00000000E+00  0.00000000E+00
  0.00000000E+00  0.00000000E+00  0.00000000E+00
  0.00000000E+00  0.00000000E+00  0.00000000E+00
  0.00000000E+00  0.00000000E+00  0.00000000E+00
  0.00000000E+00  0.00000000E+00  0.00000000E+00
  0.00000000E+00  0.00000000E+00  0.00000000E+00
  0.00000000E+00  0.00000000E+00  0.00000000E+00
  0.00000000E+00  0.00000000E+00  0.00000000E+00
  0.00000000E+00  0.00000000E+00  0.00000000E+00
  0.00000000E+00  0.00000000E+00  0.00000000E+00
  0.00000000E+00  0.00000000E+00  0.00000000E+00
  0.00000000E+00  0.00000000E+00  0.00000000E+00
  0.00000000E+00  0.00000000E+00  0.00000000E+00
  0.00000000E+00  0.00000000E+00  0.00000000E+00
  0.00000000E+00  0.00000000E+00  0.00000000E+00
  0.00000000E+00  0.00000000E+00  0.00000000E+00
  0.00000000E+00  0.00000000E+00  0.00000000E+00
  0.00000000E+00  0.00000000E+00  0.00000000E+00
  0.00000000E+00  0.00000000E+00  0.00000000E+00
  0.00000000E+00  0.00000000E+00  0.00000000E+00
  0.00000000E+00  0.00000000E+00  0.00000000E+00
  0.00000000E+00  0.00000000E+00  0.00000000E+00
  0.00000000E+00  0.00000000E+00  0.00000000E+00
  0.00000000E+00  0.00000000E+00  0.00000000E+00
