 H Cu                                   
   1.00000000000000     
    10.2710469276006560    0.0000000000000000    0.0000000000000006
     2.5677617319001635    6.2897060242006209    0.0000000000000005
     0.0000000000000000    0.0000000000000000   20.0000000000000000
   H    Cu
     2    48
Selective dynamics
Direct
  0.4014167246417619  0.1628901053868968  0.2197121734715329   T   T   T
  0.5985838348408244  0.8371095833855488  0.7802742169023219   T   T   T
  0.1455110739650192  0.1672977258736912  0.2971892215715310   T   T   T
  0.6451111649842119  0.1682532274222216  0.2969719919681088   T   T   T
  0.6874476753911868  0.4993763668013065  0.3316197995267113   T   T   T
  0.9374009367787551  0.4999171756415712  0.3318321411474686   T   T   T
  0.8953086131841463  0.1679606310868664  0.2981128845932108   T   T   T
  0.3961812410180721  0.1658238003044002  0.2958982344988657   T   T   T
  0.4795269137326880  0.8312688435709301  0.3679277379572387   T   T   T
  0.7294869462702169  0.8307433658490003  0.3674860630504143   T   T   T
  0.2288577201451672  0.8319535758685160  0.3674315173173315   T   T   T
  0.9797593204468535  0.8314789440389762  0.3668958132059017   T   T   T
  0.2708333333333357  0.1666666666666643  0.4073438795545385   F   F   F
  0.5208333333333357  0.1666666666666643  0.4073438795545385   F   F   F
  0.1868330939062632  0.5018237731799305  0.3327340364890040   T   T   T
  0.4371165358789396  0.5017798023213987  0.3325542931645715   T   T   T
  0.3125000000000000  0.5000000000000000  0.4444063277327217   F   F   F
  0.5625000000000000  0.5000000000000000  0.4444063277327217   F   F   F
  0.0625000000000000  0.5000000000000000  0.4444063277327217   F   F   F
  0.8125000000000000  0.5000000000000000  0.4444063277327217   F   F   F
  0.3541666666666643  0.8333333333333357  0.4814687759109049   F   F   F
  0.1041666666666643  0.8333333333333357  0.4814687759109049   F   F   F
  0.8541666666666643  0.8333333333333357  0.4814687759109049   F   F   F
  0.6041666666666643  0.8333333333333357  0.4814687759109049   F   F   F
  0.8958333333333357  0.1666666666666643  0.5185312240890951   F   F   F
  0.6458333333333357  0.1666666666666643  0.5185312240890951   F   F   F
  0.1458333333333357  0.1666666666666643  0.5185312240890951   F   F   F
  0.3958333333333357  0.1666666666666643  0.5185312240890951   F   F   F
  0.4375000000000000  0.5000000000000000  0.5555936722672783   F   F   F
  0.1875000000000000  0.5000000000000000  0.5555936722672783   F   F   F
  0.0208333333333357  0.1666666666666643  0.4073438795545385   F   F   F
  0.7708333333333357  0.1666666666666643  0.4073438795545385   F   F   F
  0.6875000000000000  0.5000000000000000  0.5555936722672783   F   F   F
  0.9375000000000000  0.5000000000000000  0.5555936722672783   F   F   F
  0.4791666666666643  0.8333333333333357  0.5926561204454615   F   F   F
  0.7291666666666643  0.8333333333333357  0.5926561204454615   F   F   F
  0.5204737066321867  0.1687303041859940  0.6320705706778267   T   T   T
  0.2705132113986350  0.1692534134243975  0.6325123085546726   T   T   T
  0.9791666666666643  0.8333333333333357  0.5926561204454615   F   F   F
  0.2291666666666643  0.8333333333333357  0.5926561204454615   F   F   F
  0.8131711373808344  0.4981575249539983  0.6672572079009854   T   T   T
  0.5628844728425911  0.4982190768671917  0.6674379450166354   T   T   T
  0.3125538521170398  0.5006216633325442  0.6683719376113315   T   T   T
  0.0625983741207389  0.5000830707565577  0.6681589514885440   T   T   T
  0.6038152965827445  0.8341800042904307  0.7041044775086938   T   T   T
  0.8544884791374198  0.8326973299199890  0.7028020212668252   T   T   T
  0.0202418655630520  0.1685189515674184  0.6331019520429256   T   T   T
  0.7711430579667730  0.1680466864495158  0.6325650943760857   T   T   T
  0.3548910813915639  0.8317454914566843  0.7030194958055668   T   T   T
  0.1046925980947609  0.8320356837730206  0.7018782338533189   T   T   T
 
  0.00000000E+00  0.00000000E+00  0.00000000E+00
  0.00000000E+00  0.00000000E+00  0.00000000E+00
  0.00000000E+00  0.00000000E+00  0.00000000E+00
  0.00000000E+00  0.00000000E+00  0.00000000E+00
  0.00000000E+00  0.00000000E+00  0.00000000E+00
  0.00000000E+00  0.00000000E+00  0.00000000E+00
  0.00000000E+00  0.00000000E+00  0.00000000E+00
  0.00000000E+00  0.00000000E+00  0.00000000E+00
  0.00000000E+00  0.00000000E+00  0.00000000E+00
  0.00000000E+00  0.00000000E+00  0.00000000E+00
  0.00000000E+00  0.00000000E+00  0.00000000E+00
  0.00000000E+00  0.00000000E+00  0.00000000E+00
  0.00000000E+00  0.00000000E+00  0.00000000E+00
  0.00000000E+00  0.00000000E+00  0.00000000E+00
  0.00000000E+00  0.00000000E+00  0.00000000E+00
  0.00000000E+00  0.00000000E+00  0.00000000E+00
  0.00000000E+00  0.00000000E+00  0.00000000E+00
  0.00000000E+00  0.00000000E+00  0.00000000E+00
  0.00000000E+00  0.00000000E+00  0.00000000E+00
  0.00000000E+00  0.00000000E+00  0.00000000E+00
  0.00000000E+00  0.00000000E+00  0.00000000E+00
  0.00000000E+00  0.00000000E+00  0.00000000E+00
  0.00000000E+00  0.00000000E+00  0.00000000E+00
  0.00000000E+00  0.00000000E+00  0.00000000E+00
  0.00000000E+00  0.00000000E+00  0.00000000E+00
  0.00000000E+00  0.00000000E+00  0.00000000E+00
  0.00000000E+00  0.00000000E+00  0.00000000E+00
  0.00000000E+00  0.00000000E+00  0.00000000E+00
  0.00000000E+00  0.00000000E+00  0.00000000E+00
  0.00000000E+00  0.00000000E+00  0.00000000E+00
  0.00000000E+00  0.00000000E+00  0.00000000E+00
  0.00000000E+00  0.00000000E+00  0.00000000E+00
  0.00000000E+00  0.00000000E+00  0.00000000E+00
  0.00000000E+00  0.00000000E+00  0.00000000E+00
  0.00000000E+00  0.00000000E+00  0.00000000E+00
  0.00000000E+00  0.00000000E+00  0.00000000E+00
  0.00000000E+00  0.00000000E+00  0.00000000E+00
  0.00000000E+00  0.00000000E+00  0.00000000E+00
  0.00000000E+00  0.00000000E+00  0.00000000E+00
  0.00000000E+00  0.00000000E+00  0.00000000E+00
  0.00000000E+00  0.00000000E+00  0.00000000E+00
  0.00000000E+00  0.00000000E+00  0.00000000E+00
  0.00000000E+00  0.00000000E+00  0.00000000E+00
  0.00000000E+00  0.00000000E+00  0.00000000E+00
  0.00000000E+00  0.00000000E+00  0.00000000E+00
  0.00000000E+00  0.00000000E+00  0.00000000E+00
  0.00000000E+00  0.00000000E+00  0.00000000E+00
  0.00000000E+00  0.00000000E+00  0.00000000E+00
  0.00000000E+00  0.00000000E+00  0.00000000E+00
  0.00000000E+00  0.00000000E+00  0.00000000E+00
