 H  C Cu                                
   1.00000000000000     
    10.2710469276006560    0.0000000000000000    0.0000000000000006
     2.5677617319001635    6.2897060242006209    0.0000000000000005
     0.0000000000000000    0.0000000000000000   30.0000000000000000
   H    C    Cu
     2     2    48
Selective dynamics
Direct
  0.2056434621177488  0.3802169782279350  0.2979209733872779   T   T   T
  0.7896573155938711  0.6280022551868925  0.7020790266127221   T   T   T
  0.2232266506258540  0.3301397904064274  0.3328115501272251   T   T   T
  0.7741865432681365  0.6739870237931385  0.6669057124614568   T   T   T
  0.1409136333656278  0.1575885027745869  0.3632146945074695   T   T   T
  0.3968911455308586  0.1692897005162308  0.3627994363993068   T   T   T
  0.6446120234394570  0.1682004506317085  0.3655976456093555   T   T   T
  0.8926215370133193  0.1676018692868624  0.3656818466721674   T   T   T
  0.2292427940280461  0.8324203723976993  0.4122199200812702   T   T   T
  0.7295816512487363  0.8306542812011415  0.4111836863367273   T   T   T
  0.9796684902987280  0.8327526786187036  0.4116019046847583   T   T   T
  0.4797064582796864  0.8346109433186939  0.4110306188183230   T   T   T
  0.6868840788514277  0.5006462390158006  0.3875008029460432   T   T   T
  0.9373626013112784  0.4997059363996712  0.3874036346681251   T   T   T
  0.1839625023489830  0.5150080752464206  0.3840067017303710   T   T   T
  0.4378344241342731  0.5025834708475685  0.3880988289043756   T   T   T
  0.3125227806840485  0.4999886977673142  0.4626631437468376   F   F   F
  0.0625227806840485  0.4999886977673142  0.4626631437468376   F   F   F
  0.5625227806840485  0.4999886977673142  0.4626631437468376   F   F   F
  0.8125227806840485  0.4999886977673142  0.4626631437468376   F   F   F
  0.3541894473507128  0.8333220311006500  0.4873714425322930   F   F   F
  0.1041894473507128  0.8333220311006500  0.4873714425322930   F   F   F
  0.8541894473507128  0.8333220311006500  0.4873714425322930   F   F   F
  0.6041894473507128  0.8333220311006500  0.4873714425322930   F   F   F
  0.8958561140173842  0.1666553644339785  0.5120797413177414   F   F   F
  0.1458561140173842  0.1666553644339785  0.5120797413177414   F   F   F
  0.3958561140173842  0.1666553644339785  0.5120797413177414   F   F   F
  0.6458561140173842  0.1666553644339785  0.5120797413177414   F   F   F
  0.2708561140173842  0.1666553644339785  0.4379548449613822   F   F   F
  0.5208561140173842  0.1666553644339785  0.4379548449613822   F   F   F
  0.0208561140173842  0.1666553644339785  0.4379548449613822   F   F   F
  0.7708561140173842  0.1666553644339785  0.4379548449613822   F   F   F
  0.6875227806840485  0.4999886977673142  0.5367880401031968   F   F   F
  0.9375227806840485  0.4999886977673142  0.5367880401031968   F   F   F
  0.1875227806840485  0.4999886977673142  0.5367880401031968   F   F   F
  0.4375227806840485  0.4999886977673142  0.5367880401031968   F   F   F
  0.4791894473507128  0.8333220311006500  0.5614963388886594   F   F   F
  0.7291894473507128  0.8333220311006500  0.5614963388886594   F   F   F
  0.9791894473507128  0.8333220311006500  0.5614963388886594   F   F   F
  0.2291894473507128  0.8333220311006500  0.5614963388886594   F   F   F
  0.3134150002450227  0.5000027727423912  0.6119949425412088   T   T   T
  0.0631498908545893  0.5006540292066788  0.6119598206749330   T   T   T
  0.8162913510836134  0.4859894012905102  0.6160476080275998   T   T   T
  0.5625789291407841  0.4984730125718571  0.6114635562143746   T   T   T
  0.5204901612317769  0.1666786907032503  0.5882447940962550   T   T   T
  0.2708103948176515  0.1695838327981107  0.5882882255345052   T   T   T
  0.0203315097012720  0.1680457312161820  0.5878833109940587   T   T   T
  0.7711109992571679  0.1682552238767840  0.5873347563299092   T   T   T
  0.3551256335013449  0.8325066371505017  0.6339031099612527   T   T   T
  0.1072626998121038  0.8332098356263415  0.6337643070401384   T   T   T
  0.8591135026614225  0.8424114972254131  0.6362591361615060   T   T   T
  0.6017728587940354  0.8341042896238662  0.6364801116032766   T   T   T
 
  0.00000000E+00  0.00000000E+00  0.00000000E+00
  0.00000000E+00  0.00000000E+00  0.00000000E+00
  0.00000000E+00  0.00000000E+00  0.00000000E+00
  0.00000000E+00  0.00000000E+00  0.00000000E+00
  0.00000000E+00  0.00000000E+00  0.00000000E+00
  0.00000000E+00  0.00000000E+00  0.00000000E+00
  0.00000000E+00  0.00000000E+00  0.00000000E+00
  0.00000000E+00  0.00000000E+00  0.00000000E+00
  0.00000000E+00  0.00000000E+00  0.00000000E+00
  0.00000000E+00  0.00000000E+00  0.00000000E+00
  0.00000000E+00  0.00000000E+00  0.00000000E+00
  0.00000000E+00  0.00000000E+00  0.00000000E+00
  0.00000000E+00  0.00000000E+00  0.00000000E+00
  0.00000000E+00  0.00000000E+00  0.00000000E+00
  0.00000000E+00  0.00000000E+00  0.00000000E+00
  0.00000000E+00  0.00000000E+00  0.00000000E+00
  0.00000000E+00  0.00000000E+00  0.00000000E+00
  0.00000000E+00  0.00000000E+00  0.00000000E+00
  0.00000000E+00  0.00000000E+00  0.00000000E+00
  0.00000000E+00  0.00000000E+00  0.00000000E+00
  0.00000000E+00  0.00000000E+00  0.00000000E+00
  0.00000000E+00  0.00000000E+00  0.00000000E+00
  0.00000000E+00  0.00000000E+00  0.00000000E+00
  0.00000000E+00  0.00000000E+00  0.00000000E+00
  0.00000000E+00  0.00000000E+00  0.00000000E+00
  0.00000000E+00  0.00000000E+00  0.00000000E+00
  0.00000000E+00  0.00000000E+00  0.00000000E+00
  0.00000000E+00  0.00000000E+00  0.00000000E+00
  0.00000000E+00  0.00000000E+00  0.00000000E+00
  0.00000000E+00  0.00000000E+00  0.00000000E+00
  0.00000000E+00  0.00000000E+00  0.00000000E+00
  0.00000000E+00  0.00000000E+00  0.00000000E+00
  0.00000000E+00  0.00000000E+00  0.00000000E+00
  0.00000000E+00  0.00000000E+00  0.00000000E+00
  0.00000000E+00  0.00000000E+00  0.00000000E+00
  0.00000000E+00  0.00000000E+00  0.00000000E+00
  0.00000000E+00  0.00000000E+00  0.00000000E+00
  0.00000000E+00  0.00000000E+00  0.00000000E+00
  0.00000000E+00  0.00000000E+00  0.00000000E+00
  0.00000000E+00  0.00000000E+00  0.00000000E+00
  0.00000000E+00  0.00000000E+00  0.00000000E+00
  0.00000000E+00  0.00000000E+00  0.00000000E+00
  0.00000000E+00  0.00000000E+00  0.00000000E+00
  0.00000000E+00  0.00000000E+00  0.00000000E+00
  0.00000000E+00  0.00000000E+00  0.00000000E+00
  0.00000000E+00  0.00000000E+00  0.00000000E+00
  0.00000000E+00  0.00000000E+00  0.00000000E+00
  0.00000000E+00  0.00000000E+00  0.00000000E+00
  0.00000000E+00  0.00000000E+00  0.00000000E+00
  0.00000000E+00  0.00000000E+00  0.00000000E+00
  0.00000000E+00  0.00000000E+00  0.00000000E+00
  0.00000000E+00  0.00000000E+00  0.00000000E+00
