 H  C  O Cu                             
   1.00000000000000     
    10.2710469276006560    0.0000000000000000    0.0000000000000006
     2.5677617319001635    6.2897060242006209    0.0000000000000005
     0.0000000000000000    0.0000000000000000   32.6149543968023465
   H    C    O    Cu
     2     4     4    48
Selective dynamics
Direct
  0.1983593253597886  0.1614945228650250  0.2617455605073621   T   T   T
  0.8303053100526848  0.8320325865260015  0.7382568422797734   T   T   T
  0.8186195499581682  0.8248677966589308  0.6792990193853197   T   T   T
  0.2100882414200107  0.1684324754372752  0.3207078934276146   T   T   T
  0.6752976211776743  0.8251050412224028  0.6834821167361007   T   T   T
  0.3533387915025315  0.1683056781844516  0.3165303690343258   T   T   T
  0.1410345658252496  0.1616959188980470  0.2857082721441380   T   T   T
  0.4106543081819699  0.1634883330002684  0.2826112483747751   T   T   T
  0.6180044063314409  0.8297588012158927  0.7173939773971275   T   T   T
  0.8875395660099226  0.8318638809465603  0.7142717301923758   T   T   T
  0.1494300576750112  0.1633946878797427  0.3753074151552440   T   T   T
  0.4178354832583300  0.1644037888524255  0.3730514260025632   T   T   T
  0.6994856677056516  0.5015811168525746  0.3965435264175784   T   T   T
  0.9490747769160559  0.5001624866327012  0.3974458971291076   T   T   T
  0.6605353269091181  0.1686071874312959  0.3764702301812560   T   T   T
  0.9038158914944758  0.1671895494779144  0.3765642470994430   T   T   T
  0.3268102038023102  0.4967576674194092  0.4659090909090935   F   F   F
  0.0768102038023102  0.4967576674194092  0.4659090909090935   F   F   F
  0.5768102038023102  0.4967576674194092  0.4659090909090935   F   F   F
  0.8268102038023102  0.4967576674194092  0.4659090909090935   F   F   F
  0.3684768704689745  0.8300910007527449  0.4886363636363669   F   F   F
  0.1184768704689745  0.8300910007527449  0.4886363636363669   F   F   F
  0.2013810431057550  0.4958674910547107  0.3969367261728388   T   T   T
  0.4513247308779212  0.4991018343606775  0.3973350034023441   T   T   T
  0.2431564105180300  0.8294534252346139  0.4187443578312174   T   T   T
  0.7428950753451437  0.8301831362436289  0.4181025670457393   T   T   T
  0.9942457227055929  0.8285120978118569  0.4181940024568670   T   T   T
  0.4921507632663763  0.8318834812616582  0.4183087508047696   T   T   T
  0.2851435371356459  0.1634243340860735  0.4431818181818201   F   F   F
  0.5351435371356459  0.1634243340860735  0.4431818181818201   F   F   F
  0.0351435371356459  0.1634243340860735  0.4431818181818201   F   F   F
  0.7851435371356459  0.1634243340860735  0.4431818181818201   F   F   F
  0.7018102038023102  0.4967576674194092  0.5340909090909065   F   F   F
  0.9518102038023102  0.4967576674194092  0.5340909090909065   F   F   F
  0.2018102038023102  0.4967576674194092  0.5340909090909065   F   F   F
  0.4518102038023102  0.4967576674194092  0.5340909090909065   F   F   F
  0.6601435371356459  0.1634243340860735  0.5113636363636331   F   F   F
  0.4101435371356459  0.1634243340860735  0.5113636363636331   F   F   F
  0.1601435371356459  0.1634243340860735  0.5113636363636331   F   F   F
  0.9101435371356459  0.1634243340860735  0.5113636363636331   F   F   F
  0.6184768704689745  0.8300910007527449  0.4886363636363669   F   F   F
  0.8684768704689745  0.8300910007527449  0.4886363636363669   F   F   F
  0.4934768704689745  0.8300910007527449  0.5568181818181799   F   F   F
  0.7434768704689745  0.8300910007527449  0.5568181818181799   F   F   F
  0.5364207838207702  0.1616886118719434  0.5816859419153978   T   T   T
  0.2857005253810544  0.1633554688352898  0.5819013633084201   T   T   T
  0.9934768704689745  0.8300910007527449  0.5568181818181799   F   F   F
  0.2434768704689745  0.8300910007527449  0.5568181818181799   F   F   F
  0.3680350300840845  0.8249389040353337  0.6235272873964646   T   T   T
  0.1247494495077478  0.8263169480664829  0.6234316437268252   T   T   T
  0.8791059276332079  0.8301083920843014  0.6246942212050632   T   T   T
  0.6107324373122954  0.8292182251687370  0.6269531610149819   T   T   T
  0.5773675112650196  0.4944212343610007  0.6026711125021027   T   T   T
  0.8273065970336752  0.4976246969997478  0.6030676488443709   T   T   T
  0.0795275869973873  0.4933596271676044  0.6025603183277395   T   T   T
  0.3291150640590692  0.4919778496647746  0.6034453612523853   T   T   T
  0.7854675016866633  0.1640519685104108  0.5812670880723682   T   T   T
  0.0344201562900198  0.1649771506460859  0.5818096902595598   T   T   T
 
  0.00000000E+00  0.00000000E+00  0.00000000E+00
  0.00000000E+00  0.00000000E+00  0.00000000E+00
  0.00000000E+00  0.00000000E+00  0.00000000E+00
  0.00000000E+00  0.00000000E+00  0.00000000E+00
  0.00000000E+00  0.00000000E+00  0.00000000E+00
  0.00000000E+00  0.00000000E+00  0.00000000E+00
  0.00000000E+00  0.00000000E+00  0.00000000E+00
  0.00000000E+00  0.00000000E+00  0.00000000E+00
  0.00000000E+00  0.00000000E+00  0.00000000E+00
  0.00000000E+00  0.00000000E+00  0.00000000E+00
  0.00000000E+00  0.00000000E+00  0.00000000E+00
  0.00000000E+00  0.00000000E+00  0.00000000E+00
  0.00000000E+00  0.00000000E+00  0.00000000E+00
  0.00000000E+00  0.00000000E+00  0.00000000E+00
  0.00000000E+00  0.00000000E+00  0.00000000E+00
  0.00000000E+00  0.00000000E+00  0.00000000E+00
  0.00000000E+00  0.00000000E+00  0.00000000E+00
  0.00000000E+00  0.00000000E+00  0.00000000E+00
  0.00000000E+00  0.00000000E+00  0.00000000E+00
  0.00000000E+00  0.00000000E+00  0.00000000E+00
  0.00000000E+00  0.00000000E+00  0.00000000E+00
  0.00000000E+00  0.00000000E+00  0.00000000E+00
  0.00000000E+00  0.00000000E+00  0.00000000E+00
  0.00000000E+00  0.00000000E+00  0.00000000E+00
  0.00000000E+00  0.00000000E+00  0.00000000E+00
  0.00000000E+00  0.00000000E+00  0.00000000E+00
  0.00000000E+00  0.00000000E+00  0.00000000E+00
  0.00000000E+00  0.00000000E+00  0.00000000E+00
  0.00000000E+00  0.00000000E+00  0.00000000E+00
  0.00000000E+00  0.00000000E+00  0.00000000E+00
  0.00000000E+00  0.00000000E+00  0.00000000E+00
  0.00000000E+00  0.00000000E+00  0.00000000E+00
  0.00000000E+00  0.00000000E+00  0.00000000E+00
  0.00000000E+00  0.00000000E+00  0.00000000E+00
  0.00000000E+00  0.00000000E+00  0.00000000E+00
  0.00000000E+00  0.00000000E+00  0.00000000E+00
  0.00000000E+00  0.00000000E+00  0.00000000E+00
  0.00000000E+00  0.00000000E+00  0.00000000E+00
  0.00000000E+00  0.00000000E+00  0.00000000E+00
  0.00000000E+00  0.00000000E+00  0.00000000E+00
  0.00000000E+00  0.00000000E+00  0.00000000E+00
  0.00000000E+00  0.00000000E+00  0.00000000E+00
  0.00000000E+00  0.00000000E+00  0.00000000E+00
  0.00000000E+00  0.00000000E+00  0.00000000E+00
  0.00000000E+00  0.00000000E+00  0.00000000E+00
  0.00000000E+00  0.00000000E+00  0.00000000E+00
  0.00000000E+00  0.00000000E+00  0.00000000E+00
  0.00000000E+00  0.00000000E+00  0.00000000E+00
  0.00000000E+00  0.00000000E+00  0.00000000E+00
  0.00000000E+00  0.00000000E+00  0.00000000E+00
  0.00000000E+00  0.00000000E+00  0.00000000E+00
  0.00000000E+00  0.00000000E+00  0.00000000E+00
  0.00000000E+00  0.00000000E+00  0.00000000E+00
  0.00000000E+00  0.00000000E+00  0.00000000E+00
  0.00000000E+00  0.00000000E+00  0.00000000E+00
  0.00000000E+00  0.00000000E+00  0.00000000E+00
  0.00000000E+00  0.00000000E+00  0.00000000E+00
  0.00000000E+00  0.00000000E+00  0.00000000E+00
