 H  C                                   
   1.00000000000000     
    10.0000000000000000    0.0000000000000000    0.0000000000000000
     0.0000000000000000   10.0000000000000000    0.0000000000000000
     0.0000000000000000    0.0000000000000000   10.0000000000000000
   H    C 
     1     1
Direct
  0.4999999985175296  0.5000000039525844  0.5563392126858689
  0.5000000014824704  0.4999999960474156  0.4436607873141310
 
  0.00000000E+00  0.00000000E+00  0.00000000E+00
  0.00000000E+00  0.00000000E+00  0.00000000E+00
