 C  O                                   
   1.00000000000000     
    10.0000000000000000    0.0000000000000000    0.0000000000000000
     0.0000000000000000   10.0000000000000000    0.0000000000000000
     0.0000000000000000    0.0000000000000000   10.0000000000000000
   C    O 
     1     2
Direct
  0.5007740742044996  0.4997095944226375  0.5091330272086346
  0.3834154152665223  0.4976461187322561  0.5056090543702373
  0.6181460276648754  0.5017473172389820  0.5122879666337300
 
  0.00000000E+00  0.00000000E+00  0.00000000E+00
  0.00000000E+00  0.00000000E+00  0.00000000E+00
  0.00000000E+00  0.00000000E+00  0.00000000E+00
