Cu 
 1.0000000000000000
    10.2710469276006560    0.0000000000000000    0.0000000000000006
     2.5677617319001635    6.2897060242006209    0.0000000000000005
     0.0000000000000000    0.0000000000000000   32.6149543968023465
 Cu 
  48
Selective dynamics
Cartesian
  7.1999999999999833  5.2210283680692466 18.1605996073103988   F   F   F
  9.7677617319001477  5.2210283680692466 18.1605996073103988   F   F   F
 12.3355234638003068  5.2210283680692466 18.1605996073103988   F   F   F
  4.6322382680998206  5.2210283680692466 18.1605996073103988   F   F   F
  7.1999999999999815  3.1244596933357123 19.6430975344377785   T   T   T
  9.7677617319001460  3.1244596933357123 19.6430975344377785   T   T   T
  2.0644765361996509  3.1244596933357123 19.6430975344377785   T   T   T
  4.6322382680998189  3.1244596933357123 19.6430975344377785   T   T   T
  8.4838808659500717  1.0278910186021615 18.9018485708741046   T   T   T
  0.7805956702495688  1.0278910186021615 18.9018485708741046   T   T   T
  3.3483574021497402  1.0278910186021615 18.9018485708741046   T   T   T
  5.9161191340499055  1.0278910186021615 18.9018485708741046   T   T   T
  8.4838808659500611  5.2210283680692475 20.3843464980014666   T   T   T
 11.0516425978502237  5.2210283680692475 20.3843464980014666   T   T   T
  3.3483574021497340  5.2210283680692475 20.3843464980014666   T   T   T
  5.9161191340498966  5.2210283680692475 20.3843464980014666   T   T   T
  9.7677617319001460  3.1244596933357105 15.1956037530556394   F   F   F
  2.0644765361996504  3.1244596933357105 15.1956037530556394   F   F   F
  4.6322382680998189  3.1244596933357105 15.1956037530556394   F   F   F
  7.1999999999999824  3.1244596933357105 15.1956037530556394   F   F   F
  9.7677617319001477  1.0278910186021615 16.6781016801830191   F   F   F
  2.0644765361996487  1.0278910186021615 16.6781016801830191   F   F   F
  4.6322382680998198  1.0278910186021615 16.6781016801830191   F   F   F
  7.1999999999999869  1.0278910186021615 16.6781016801830191   F   F   F
  8.4838808659500593  5.2210283680692466 15.9368527166193292   F   F   F
 11.0516425978502220  5.2210283680692466 15.9368527166193292   F   F   F
  3.3483574021497313  5.2210283680692466 15.9368527166193257   F   F   F
  5.9161191340498940  5.2210283680692466 15.9368527166193257   F   F   F
  8.4838808659500700  3.1244596933357105 17.4193506437467107   F   F   F
 11.0516425978502220  3.1244596933357105 17.4193506437467107   F   F   F
  3.3483574021497424  3.1244596933357105 17.4193506437467107   F   F   F
  5.9161191340499064  3.1244596933357105 17.4193506437467107   F   F   F
  7.1999999999999815  1.0278910186021630 12.2306078988008800   T   T   T
  9.7677617319001442  1.0278910186021630 12.2306078988008800   T   T   T
  2.0644765361996513  1.0278910186021630 12.2306078988008782   T   T   T
  4.6322382680998206  1.0278910186021630 12.2306078988008800   T   T   T
  9.7677617319001442  5.2210283680692466 13.7131058259282597   T   T   T
 12.3355234638003033  5.2210283680692466 13.7131058259282614   T   T   T
  4.6322382680998206  5.2210283680692466 13.7131058259282579   T   T   T
  7.1999999999999815  5.2210283680692466 13.7131058259282597   T   T   T
  8.4838808659500682  3.1244596933357105 12.9718568623645716   T   T   T
 11.0516425978502220  3.1244596933357105 12.9718568623645716   T   T   T
  3.3483574021497375  3.1244596933357105 12.9718568623645716   T   T   T
  5.9161191340499020  3.1244596933357105 12.9718568623645716   T   T   T
  5.9161191340499046  1.0278910186021599 14.4543547894919477   F   F   F
  8.4838808659500717  1.0278910186021599 14.4543547894919495   F   F   F
  0.7805956702495681  1.0278910186021599 14.4543547894919495   F   F   F
  3.3483574021497375  1.0278910186021599 14.4543547894919477   F   F   F
