Cu 
 1.0000000000000000
    10.2710469276006560    0.0000000000000000    0.0000000000000006
    -0.0000000000000006   10.2710469276006560    0.0000000000000006
     0.0000000000000000    0.0000000000000000   20.0000000000000000
 Cu 
  64
Selective dynamics
Cartesian
  0.6419404329750416  0.6419404329750416 22.6960216637239895   F   F   F
  0.6419404329750414  3.2097021648752055 22.6960216637239895   F   F   F
  0.6419404329750412  5.7774638967753695 22.6960216637239895   F   F   F
  0.6419404329750411  8.3452256286755322 22.6960216637239895   F   F   F
  3.2097021648752055  0.6419404329750416 22.6960216637239895   F   F   F
  3.2097021648752055  3.2097021648752055 22.6960216637239895   F   F   F
  3.2097021648752051  5.7774638967753695 22.6960216637239895   F   F   F
  3.2097021648752051  8.3452256286755322 22.6960216637239895   F   F   F
  5.7774638967753695  0.6419404329750416 22.6960216637239895   F   F   F
  5.7774638967753695  3.2097021648752055 22.6960216637239895   F   F   F
  5.7774638967753695  5.7774638967753695 22.6960216637239895   F   F   F
  5.7774638967753686  8.3452256286755322 22.6960216637239931   F   F   F
  8.3452256286755322  0.6419404329750416 22.6960216637239895   F   F   F
  8.3452256286755322  3.2097021648752055 22.6960216637239895   F   F   F
  8.3452256286755322  5.7774638967753695 22.6960216637239931   F   F   F
  8.3452256286755322  8.3452256286755322 22.6960216637239931   F   F   F
  1.9258212989251235  1.9258212989251235 24.5117033968219182   T   T   T
  1.9258212989251233  4.4935830308252873 24.5117033968219182   T   T   T
  1.9258212989251233  7.0613447627254518 24.5117033968219182   T   T   T
  1.9258212989251231  9.6291064946256135 24.5117033968219182   T   T   T
  4.4935830308252873  1.9258212989251235 24.5117033968219182   T   T   T
  4.4935830308252864  4.4935830308252873 24.5117033968219182   T   T   T
  4.4935830308252882  7.0613447627254518 24.5117033968219182   T   T   T
  4.4935830308252882  9.6291064946256135 24.5117033968219147   T   T   T
  7.0613447627254518  1.9258212989251235 24.5117033968219182   T   T   T
  7.0613447627254518  4.4935830308252873 24.5117033968219182   T   T   T
  7.0613447627254518  7.0613447627254518 24.5117033968219147   T   T   T
  7.0613447627254509  9.6291064946256135 24.5117033968219147   T   T   T
  9.6291064946256135  1.9258212989251235 24.5117033968219182   T   T   T
  9.6291064946256135  4.4935830308252873 24.5117033968219147   T   T   T
  9.6291064946256135  7.0613447627254518 24.5117033968219147   T   T   T
  9.6291064946256135  9.6291064946256135 24.5117033968219147   T   T   T
  0.6419404329750416  0.6419404329750416 19.0646581975281535   T   T   T
  0.6419404329750414  3.2097021648752055 19.0646581975281499   T   T   T
  0.6419404329750412  5.7774638967753695 19.0646581975281499   T   T   T
  0.6419404329750411  8.3452256286755322 19.0646581975281499   T   T   T
  3.2097021648752055  0.6419404329750416 19.0646581975281499   T   T   T
  3.2097021648752055  3.2097021648752055 19.0646581975281499   T   T   T
  3.2097021648752051  5.7774638967753695 19.0646581975281499   T   T   T
  3.2097021648752051  8.3452256286755322 19.0646581975281499   T   T   T
  5.7774638967753695  0.6419404329750416 19.0646581975281499   T   T   T
  5.7774638967753695  3.2097021648752055 19.0646581975281499   T   T   T
  5.7774638967753695  5.7774638967753695 19.0646581975281499   T   T   T
  5.7774638967753686  8.3452256286755322 19.0646581975281499   T   T   T
  8.3452256286755322  0.6419404329750416 19.0646581975281499   T   T   T
  8.3452256286755322  3.2097021648752055 19.0646581975281499   T   T   T
  8.3452256286755322  5.7774638967753695 19.0646581975281499   T   T   T
  8.3452256286755322  8.3452256286755322 19.0646581975281499   T   T   T
  1.9258212989251235  1.9258212989251235 20.8803399306260715   F   F   F
  1.9258212989251233  4.4935830308252873 20.8803399306260715   F   F   F
  1.9258212989251233  7.0613447627254518 20.8803399306260680   F   F   F
  1.9258212989251231  9.6291064946256135 20.8803399306260680   F   F   F
  4.4935830308252873  1.9258212989251235 20.8803399306260715   F   F   F
  4.4935830308252864  4.4935830308252873 20.8803399306260680   F   F   F
  4.4935830308252882  7.0613447627254518 20.8803399306260680   F   F   F
  4.4935830308252882  9.6291064946256135 20.8803399306260680   F   F   F
  7.0613447627254518  1.9258212989251235 20.8803399306260680   F   F   F
  7.0613447627254518  4.4935830308252873 20.8803399306260680   F   F   F
  7.0613447627254518  7.0613447627254518 20.8803399306260680   F   F   F
  7.0613447627254509  9.6291064946256135 20.8803399306260680   F   F   F
  9.6291064946256135  1.9258212989251235 20.8803399306260680   F   F   F
  9.6291064946256135  4.4935830308252873 20.8803399306260680   F   F   F
  9.6291064946256135  7.0613447627254518 20.8803399306260680   F   F   F
  9.6291064946256135  9.6291064946256135 20.8803399306260680   F   F   F
