 H Cu                                   
   1.00000000000000     
    10.2710469276006560    0.0000000000000000    0.0000000000000006
     2.5677617319001635    6.2897060242006209    0.0000000000000005
     0.0000000000000000    0.0000000000000000   30.0000000000000000
   H    Cu
     2    48
Selective dynamics
Direct
  0.2314212459344410  0.3117267150464236  0.3391643642601175   T   T   T
  0.7685828703789235  0.6882179293101460  0.6608391422308920   T   T   T
  0.1438047252040206  0.1688845657063943  0.3649219143452783   T   T   T
  0.6437466350750658  0.1700209442282024  0.3659770394109345   T   T   T
  0.6865962134000697  0.5014127098124063  0.3876148089713565   T   T   T
  0.9341678265873676  0.5016999456658626  0.3883247378496965   T   T   T
  0.8944159767682914  0.1678985741495762  0.3659707796898608   T   T   T
  0.3937907199226635  0.1728868146707000  0.3646438344028486   T   T   T
  0.4787027514784956  0.8346772310570065  0.4111598480526250   T   T   T
  0.7288287017841902  0.8325712007846569  0.4114332711674872   T   T   T
  0.2284715447523067  0.8312356881938618  0.4114321869078187   T   T   T
  0.9802305320092459  0.8298171900608772  0.4111296237588379   T   T   T
  0.2708272740316886  0.1666729488154246  0.4382458528902404   F   F   F
  0.5208272740316886  0.1666729488154246  0.4382458528902404   F   F   F
  0.1856979927706608  0.5026025702029993  0.3853025476171998   T   T   T
  0.4377474163834920  0.5036693020874907  0.3886657554013876   T   T   T
  0.3124939406983529  0.5000062821487603  0.4629541516756959   F   F   F
  0.5624939406983529  0.5000062821487603  0.4629541516756959   F   F   F
  0.0624939406983529  0.5000062821487603  0.4629541516756959   F   F   F
  0.8124939406983529  0.5000062821487603  0.4629541516756959   F   F   F
  0.3541606073650172  0.8333396154820960  0.4876624504611513   F   F   F
  0.1041606073650172  0.8333396154820960  0.4876624504611513   F   F   F
  0.8541606073650172  0.8333396154820960  0.4876624504611513   F   F   F
  0.6041606073650172  0.8333396154820960  0.4876624504611513   F   F   F
  0.8958272740316886  0.1666729488154246  0.5123707492466139   F   F   F
  0.6458272740316886  0.1666729488154246  0.5123707492466139   F   F   F
  0.1458272740316886  0.1666729488154246  0.5123707492466139   F   F   F
  0.3958272740316886  0.1666729488154246  0.5123707492466139   F   F   F
  0.4374939406983529  0.5000062821487603  0.5370790480320693   F   F   F
  0.1874939406983529  0.5000062821487603  0.5370790480320693   F   F   F
  0.0208272740316886  0.1666729488154246  0.4382458528902404   F   F   F
  0.7708272740316886  0.1666729488154246  0.4382458528902404   F   F   F
  0.6874939406983529  0.5000062821487603  0.5370790480320693   F   F   F
  0.9374939406983529  0.5000062821487603  0.5370790480320693   F   F   F
  0.4791606073650172  0.8333396154820960  0.5617873468175247   F   F   F
  0.7291606073650172  0.8333396154820960  0.5617873468175247   F   F   F
  0.5212867453370340  0.1653261591434738  0.5888681012039426   T   T   T
  0.2711671557037605  0.1674197409213969  0.5885958319763005   T   T   T
  0.9791606073650172  0.8333396154820960  0.5617873468175247   F   F   F
  0.2291606073650172  0.8333396154820960  0.5617873468175247   F   F   F
  0.8142939397328230  0.4973943935249726  0.6147128417435779   T   T   T
  0.5622440612170074  0.4963178255595397  0.6113662228488183   T   T   T
  0.3133969300913119  0.4985786254366325  0.6124141534013006   T   T   T
  0.0658283818675972  0.4982850878520673  0.6117047645536930   T   T   T
  0.6061904345095005  0.8271156431961948  0.6353811920570844   T   T   T
  0.8561963796527536  0.8311129929792841  0.6351041041776261   T   T   T
  0.0197667331731188  0.1701650466422320  0.5888981343940179   T   T   T
  0.7715166249997470  0.1687595777157888  0.5885949432770959   T   T   T
  0.3562432000211573  0.8299655806091982  0.6340555504115226   T   T   T
  0.1055827854488638  0.8320841009648434  0.6340619550219697   T   T   T
 
  0.00000000E+00  0.00000000E+00  0.00000000E+00
  0.00000000E+00  0.00000000E+00  0.00000000E+00
  0.00000000E+00  0.00000000E+00  0.00000000E+00
  0.00000000E+00  0.00000000E+00  0.00000000E+00
  0.00000000E+00  0.00000000E+00  0.00000000E+00
  0.00000000E+00  0.00000000E+00  0.00000000E+00
  0.00000000E+00  0.00000000E+00  0.00000000E+00
  0.00000000E+00  0.00000000E+00  0.00000000E+00
  0.00000000E+00  0.00000000E+00  0.00000000E+00
  0.00000000E+00  0.00000000E+00  0.00000000E+00
  0.00000000E+00  0.00000000E+00  0.00000000E+00
  0.00000000E+00  0.00000000E+00  0.00000000E+00
  0.00000000E+00  0.00000000E+00  0.00000000E+00
  0.00000000E+00  0.00000000E+00  0.00000000E+00
  0.00000000E+00  0.00000000E+00  0.00000000E+00
  0.00000000E+00  0.00000000E+00  0.00000000E+00
  0.00000000E+00  0.00000000E+00  0.00000000E+00
  0.00000000E+00  0.00000000E+00  0.00000000E+00
  0.00000000E+00  0.00000000E+00  0.00000000E+00
  0.00000000E+00  0.00000000E+00  0.00000000E+00
  0.00000000E+00  0.00000000E+00  0.00000000E+00
  0.00000000E+00  0.00000000E+00  0.00000000E+00
  0.00000000E+00  0.00000000E+00  0.00000000E+00
  0.00000000E+00  0.00000000E+00  0.00000000E+00
  0.00000000E+00  0.00000000E+00  0.00000000E+00
  0.00000000E+00  0.00000000E+00  0.00000000E+00
  0.00000000E+00  0.00000000E+00  0.00000000E+00
  0.00000000E+00  0.00000000E+00  0.00000000E+00
  0.00000000E+00  0.00000000E+00  0.00000000E+00
  0.00000000E+00  0.00000000E+00  0.00000000E+00
  0.00000000E+00  0.00000000E+00  0.00000000E+00
  0.00000000E+00  0.00000000E+00  0.00000000E+00
  0.00000000E+00  0.00000000E+00  0.00000000E+00
  0.00000000E+00  0.00000000E+00  0.00000000E+00
  0.00000000E+00  0.00000000E+00  0.00000000E+00
  0.00000000E+00  0.00000000E+00  0.00000000E+00
  0.00000000E+00  0.00000000E+00  0.00000000E+00
  0.00000000E+00  0.00000000E+00  0.00000000E+00
  0.00000000E+00  0.00000000E+00  0.00000000E+00
  0.00000000E+00  0.00000000E+00  0.00000000E+00
  0.00000000E+00  0.00000000E+00  0.00000000E+00
  0.00000000E+00  0.00000000E+00  0.00000000E+00
  0.00000000E+00  0.00000000E+00  0.00000000E+00
  0.00000000E+00  0.00000000E+00  0.00000000E+00
  0.00000000E+00  0.00000000E+00  0.00000000E+00
  0.00000000E+00  0.00000000E+00  0.00000000E+00
  0.00000000E+00  0.00000000E+00  0.00000000E+00
  0.00000000E+00  0.00000000E+00  0.00000000E+00
  0.00000000E+00  0.00000000E+00  0.00000000E+00
  0.00000000E+00  0.00000000E+00  0.00000000E+00
