 H  C  O Cu                             
   1.00000000000000     
    10.2710469276006560    0.0000000000000000    0.0000000000000006
     2.5677617319001635    6.2897060242006209    0.0000000000000005
     0.0000000000000000    0.0000000000000000   20.0000000000000000
   H    C    O    Cu
     2     2     4    48
Selective dynamics
Direct
  0.3467709760591399  0.1254855875767752  0.1086436066185742   T   T   T
  0.6530598367030357  0.8743311664379965  0.8914504609512330   T   T   T
  0.6681108868589467  0.8638429445561818  0.7956454496265523   T   T   T
  0.3318139686446940  0.1360941787605829  0.2044372168536081   T   T   T
  0.4024433080778680  0.1342300863137315  0.1475482508568280   T   T   T
  0.2124074055604413  0.1236815770634075  0.1991144596846419   T   T   T
  0.7875184793078562  0.8762377100515593  0.8009821649268081   T   T   T
  0.5974396519502152  0.8656280552917999  0.8525202394550806   T   T   T
  0.1374544227017511  0.1613786940893504  0.2959802563596597   T   T   T
  0.6458375511629044  0.1720547845742528  0.2986230931157303   T   T   T
  0.8904107574229803  0.1709649655364013  0.2990687249427544   T   T   T
  0.4020449172399772  0.1635779821765415  0.2940903299553682   T   T   T
  0.6858237380451587  0.5037890808335326  0.3320345690060614   T   T   T
  0.9369163531111911  0.5004614230213434  0.3330098663472674   T   T   T
  0.1873033318896825  0.4995452303366365  0.3336969817100780   T   T   T
  0.4365108173902976  0.5016469307538906  0.3331823421274487   T   T   T
  0.3125000000000000  0.5000000000000000  0.4444063277327217   F   F   F
  0.5625000000000000  0.5000000000000000  0.4444063277327217   F   F   F
  0.0625000000000000  0.5000000000000000  0.4444063277327217   F   F   F
  0.8125000000000000  0.5000000000000000  0.4444063277327217   F   F   F
  0.3541666666666643  0.8333333333333357  0.4814687759109049   F   F   F
  0.1041666666666643  0.8333333333333357  0.4814687759109049   F   F   F
  0.8541666666666643  0.8333333333333357  0.4814687759109049   F   F   F
  0.6041666666666643  0.8333333333333357  0.4814687759109049   F   F   F
  0.4790610915916388  0.8326349587297618  0.3682469589884999   T   T   T
  0.7291316717018669  0.8329579977487914  0.3670732963191830   T   T   T
  0.2292873591625278  0.8307696144464055  0.3686113700136638   T   T   T
  0.9798954758851439  0.8317941910125671  0.3667361733202226   T   T   T
  0.2708333333333357  0.1666666666666643  0.4073438795545385   F   F   F
  0.5208333333333357  0.1666666666666643  0.4073438795545385   F   F   F
  0.0208333333333357  0.1666666666666643  0.4073438795545385   F   F   F
  0.7708333333333357  0.1666666666666643  0.4073438795545385   F   F   F
  0.6875000000000000  0.5000000000000000  0.5555936722672783   F   F   F
  0.9375000000000000  0.5000000000000000  0.5555936722672783   F   F   F
  0.1875000000000000  0.5000000000000000  0.5555936722672783   F   F   F
  0.4375000000000000  0.5000000000000000  0.5555936722672783   F   F   F
  0.3958333333333357  0.1666666666666643  0.5185312240890951   F   F   F
  0.1458333333333357  0.1666666666666643  0.5185312240890951   F   F   F
  0.6458333333333357  0.1666666666666643  0.5185312240890951   F   F   F
  0.8958333333333357  0.1666666666666643  0.5185312240890951   F   F   F
  0.4791666666666643  0.8333333333333357  0.5926561204454615   F   F   F
  0.7291666666666643  0.8333333333333357  0.5926561204454615   F   F   F
  0.9791666666666643  0.8333333333333357  0.5926561204454615   F   F   F
  0.2291666666666643  0.8333333333333357  0.5926561204454615   F   F   F
  0.5209447642135843  0.1673694858775111  0.6317651177056148   T   T   T
  0.2708571638091792  0.1670717244825753  0.6329311565421500   T   T   T
  0.0201004754990535  0.1682381818016909  0.6332700853499520   T   T   T
  0.7707150151374091  0.1692265494759980  0.6314072497748455   T   T   T
  0.3541595810501239  0.8279756616433207  0.7013783622967876   T   T   T
  0.1095811626684806  0.8290635438627257  0.7009329481949583   T   T   T
  0.8625091511285500  0.8386554803161442  0.7040866709801280   T   T   T
  0.5979752016577378  0.8364511090195148  0.7059628095612411   T   T   T
  0.0630619962307052  0.4995925266217406  0.6669992498571780   T   T   T
  0.3141727962210700  0.4962438801240392  0.6679710412511900   T   T   T
  0.5635003010051362  0.4983674455866682  0.6668221728509756   T   T   T
  0.8126935290878220  0.5004884259417447  0.6663073837483056   T   T   T
 
  0.00000000E+00  0.00000000E+00  0.00000000E+00
  0.00000000E+00  0.00000000E+00  0.00000000E+00
  0.00000000E+00  0.00000000E+00  0.00000000E+00
  0.00000000E+00  0.00000000E+00  0.00000000E+00
  0.00000000E+00  0.00000000E+00  0.00000000E+00
  0.00000000E+00  0.00000000E+00  0.00000000E+00
  0.00000000E+00  0.00000000E+00  0.00000000E+00
  0.00000000E+00  0.00000000E+00  0.00000000E+00
  0.00000000E+00  0.00000000E+00  0.00000000E+00
  0.00000000E+00  0.00000000E+00  0.00000000E+00
  0.00000000E+00  0.00000000E+00  0.00000000E+00
  0.00000000E+00  0.00000000E+00  0.00000000E+00
  0.00000000E+00  0.00000000E+00  0.00000000E+00
  0.00000000E+00  0.00000000E+00  0.00000000E+00
  0.00000000E+00  0.00000000E+00  0.00000000E+00
  0.00000000E+00  0.00000000E+00  0.00000000E+00
  0.00000000E+00  0.00000000E+00  0.00000000E+00
  0.00000000E+00  0.00000000E+00  0.00000000E+00
  0.00000000E+00  0.00000000E+00  0.00000000E+00
  0.00000000E+00  0.00000000E+00  0.00000000E+00
  0.00000000E+00  0.00000000E+00  0.00000000E+00
  0.00000000E+00  0.00000000E+00  0.00000000E+00
  0.00000000E+00  0.00000000E+00  0.00000000E+00
  0.00000000E+00  0.00000000E+00  0.00000000E+00
  0.00000000E+00  0.00000000E+00  0.00000000E+00
  0.00000000E+00  0.00000000E+00  0.00000000E+00
  0.00000000E+00  0.00000000E+00  0.00000000E+00
  0.00000000E+00  0.00000000E+00  0.00000000E+00
  0.00000000E+00  0.00000000E+00  0.00000000E+00
  0.00000000E+00  0.00000000E+00  0.00000000E+00
  0.00000000E+00  0.00000000E+00  0.00000000E+00
  0.00000000E+00  0.00000000E+00  0.00000000E+00
  0.00000000E+00  0.00000000E+00  0.00000000E+00
  0.00000000E+00  0.00000000E+00  0.00000000E+00
  0.00000000E+00  0.00000000E+00  0.00000000E+00
  0.00000000E+00  0.00000000E+00  0.00000000E+00
  0.00000000E+00  0.00000000E+00  0.00000000E+00
  0.00000000E+00  0.00000000E+00  0.00000000E+00
  0.00000000E+00  0.00000000E+00  0.00000000E+00
  0.00000000E+00  0.00000000E+00  0.00000000E+00
  0.00000000E+00  0.00000000E+00  0.00000000E+00
  0.00000000E+00  0.00000000E+00  0.00000000E+00
  0.00000000E+00  0.00000000E+00  0.00000000E+00
  0.00000000E+00  0.00000000E+00  0.00000000E+00
  0.00000000E+00  0.00000000E+00  0.00000000E+00
  0.00000000E+00  0.00000000E+00  0.00000000E+00
  0.00000000E+00  0.00000000E+00  0.00000000E+00
  0.00000000E+00  0.00000000E+00  0.00000000E+00
  0.00000000E+00  0.00000000E+00  0.00000000E+00
  0.00000000E+00  0.00000000E+00  0.00000000E+00
  0.00000000E+00  0.00000000E+00  0.00000000E+00
  0.00000000E+00  0.00000000E+00  0.00000000E+00
  0.00000000E+00  0.00000000E+00  0.00000000E+00
  0.00000000E+00  0.00000000E+00  0.00000000E+00
  0.00000000E+00  0.00000000E+00  0.00000000E+00
  0.00000000E+00  0.00000000E+00  0.00000000E+00
