 H  C  O Cu                             
   1.00000000000000     
    10.2710469276006560    0.0000000000000000    0.0000000000000006
     2.5677617319001635    6.2897060242006209    0.0000000000000005
     0.0000000000000000    0.0000000000000000   30.0000000000000000
   H    C    O    Cu
     4     2     2    48
Selective dynamics
Direct
  0.3269673490920340  0.4030064605770456  0.2761980915868866   T   T   T
  0.4320373489749063  0.9611891161389833  0.2872807797536678   T   T   T
  0.5682518676791807  0.0388079133913569  0.7126217242832859   T   T   T
  0.6724638693480421  0.5970927551206735  0.7238477521042772   T   T   T
  0.6045261375788681  0.8773053153391854  0.6987855219298087   T   T   T
  0.3954973881414183  0.1226038764148542  0.3011703689815485   T   T   T
  0.3595807304626980  0.2563769605770163  0.2660925268115353   T   T   T
  0.6401368480209976  0.7437836976226231  0.7339058227319899   T   T   T
  0.1462744728149569  0.1690502577157706  0.3651482829254127   T   T   T
  0.6450399395581140  0.1705587843391518  0.3652147022508977   T   T   T
  0.8943864468391164  0.1716456257278198  0.3656411757839318   T   T   T
  0.3953475628014405  0.1711101439356907  0.3630868625532211   T   T   T
  0.6873660674844336  0.5016358098922223  0.3878003916867463   T   T   T
  0.9370094323187113  0.5014467638821818  0.3877857517082671   T   T   T
  0.1860291761186688  0.5032649389864027  0.3888594967998879   T   T   T
  0.4377699252602685  0.5028142593169087  0.3890563562238867   T   T   T
  0.3125050230424478  0.4997410779376708  0.4629231309054163   F   F   F
  0.5625050230424478  0.4997410779376708  0.4629231309054163   F   F   F
  0.0625050230424478  0.4997410779376708  0.4629231309054163   F   F   F
  0.8125050230424478  0.4997410779376708  0.4629231309054163   F   F   F
  0.3541716897091121  0.8330744112710065  0.4876314296908717   F   F   F
  0.1041716897091121  0.8330744112710065  0.4876314296908717   F   F   F
  0.8541716897091121  0.8330744112710065  0.4876314296908717   F   F   F
  0.6041716897091121  0.8330744112710065  0.4876314296908717   F   F   F
  0.4797668340719171  0.8322953262989774  0.4120493583296853   T   T   T
  0.7296112032490075  0.8319381056337768  0.4112021696003559   T   T   T
  0.2295200983435243  0.8324500345903447  0.4113803579528258   T   T   T
  0.9791888566563157  0.8324771985217408  0.4111246973372393   T   T   T
  0.2708383563757835  0.1664077446043351  0.4382148321199608   F   F   F
  0.5208383563757835  0.1664077446043351  0.4382148321199608   F   F   F
  0.0208383563757835  0.1664077446043351  0.4382148321199608   F   F   F
  0.7708383563757835  0.1664077446043351  0.4382148321199608   F   F   F
  0.6875050230424478  0.4997410779376708  0.5370480272617897   F   F   F
  0.9375050230424478  0.4997410779376708  0.5370480272617897   F   F   F
  0.1875050230424478  0.4997410779376708  0.5370480272617897   F   F   F
  0.4375050230424478  0.4997410779376708  0.5370480272617897   F   F   F
  0.3958383563757835  0.1664077446043351  0.5123397284763342   F   F   F
  0.1458383563757835  0.1664077446043351  0.5123397284763342   F   F   F
  0.6458383563757835  0.1664077446043351  0.5123397284763342   F   F   F
  0.8958383563757835  0.1664077446043351  0.5123397284763342   F   F   F
  0.4791716897091121  0.8330744112710065  0.5617563260472451   F   F   F
  0.7291716897091121  0.8330744112710065  0.5617563260472451   F   F   F
  0.9791716897091121  0.8330744112710065  0.5617563260472451   F   F   F
  0.2291716897091121  0.8330744112710065  0.5617563260472451   F   F   F
  0.5202356338655029  0.1672090643487567  0.5879209993729179   T   T   T
  0.2703979267148652  0.1675808955114378  0.5887721614092641   T   T   T
  0.0208230650337709  0.1670468815270371  0.5888431995170129   T   T   T
  0.7705003414160262  0.1670395635757752  0.5885907887084368   T   T   T
  0.3549638564717167  0.8289607651663857  0.6347553809889729   T   T   T
  0.1056003244912636  0.8279148173421114  0.6343335923061370   T   T   T
  0.8537146139294778  0.8304499621834703  0.6348294750173050   T   T   T
  0.6046374141447629  0.8284020201428639  0.6368850599049969   T   T   T
  0.0629982104486313  0.4980842581884646  0.6121893064019628   T   T   T
  0.3126342874684075  0.4979002982160168  0.6121750058557088   T   T   T
  0.5622392185767624  0.4966745446271774  0.6109160553699193   T   T   T
  0.8139671865234117  0.4962465397534692  0.6111156902539774   T   T   T
 
  0.00000000E+00  0.00000000E+00  0.00000000E+00
  0.00000000E+00  0.00000000E+00  0.00000000E+00
  0.00000000E+00  0.00000000E+00  0.00000000E+00
  0.00000000E+00  0.00000000E+00  0.00000000E+00
  0.00000000E+00  0.00000000E+00  0.00000000E+00
  0.00000000E+00  0.00000000E+00  0.00000000E+00
  0.00000000E+00  0.00000000E+00  0.00000000E+00
  0.00000000E+00  0.00000000E+00  0.00000000E+00
  0.00000000E+00  0.00000000E+00  0.00000000E+00
  0.00000000E+00  0.00000000E+00  0.00000000E+00
  0.00000000E+00  0.00000000E+00  0.00000000E+00
  0.00000000E+00  0.00000000E+00  0.00000000E+00
  0.00000000E+00  0.00000000E+00  0.00000000E+00
  0.00000000E+00  0.00000000E+00  0.00000000E+00
  0.00000000E+00  0.00000000E+00  0.00000000E+00
  0.00000000E+00  0.00000000E+00  0.00000000E+00
  0.00000000E+00  0.00000000E+00  0.00000000E+00
  0.00000000E+00  0.00000000E+00  0.00000000E+00
  0.00000000E+00  0.00000000E+00  0.00000000E+00
  0.00000000E+00  0.00000000E+00  0.00000000E+00
  0.00000000E+00  0.00000000E+00  0.00000000E+00
  0.00000000E+00  0.00000000E+00  0.00000000E+00
  0.00000000E+00  0.00000000E+00  0.00000000E+00
  0.00000000E+00  0.00000000E+00  0.00000000E+00
  0.00000000E+00  0.00000000E+00  0.00000000E+00
  0.00000000E+00  0.00000000E+00  0.00000000E+00
  0.00000000E+00  0.00000000E+00  0.00000000E+00
  0.00000000E+00  0.00000000E+00  0.00000000E+00
  0.00000000E+00  0.00000000E+00  0.00000000E+00
  0.00000000E+00  0.00000000E+00  0.00000000E+00
  0.00000000E+00  0.00000000E+00  0.00000000E+00
  0.00000000E+00  0.00000000E+00  0.00000000E+00
  0.00000000E+00  0.00000000E+00  0.00000000E+00
  0.00000000E+00  0.00000000E+00  0.00000000E+00
  0.00000000E+00  0.00000000E+00  0.00000000E+00
  0.00000000E+00  0.00000000E+00  0.00000000E+00
  0.00000000E+00  0.00000000E+00  0.00000000E+00
  0.00000000E+00  0.00000000E+00  0.00000000E+00
  0.00000000E+00  0.00000000E+00  0.00000000E+00
  0.00000000E+00  0.00000000E+00  0.00000000E+00
  0.00000000E+00  0.00000000E+00  0.00000000E+00
  0.00000000E+00  0.00000000E+00  0.00000000E+00
  0.00000000E+00  0.00000000E+00  0.00000000E+00
  0.00000000E+00  0.00000000E+00  0.00000000E+00
  0.00000000E+00  0.00000000E+00  0.00000000E+00
  0.00000000E+00  0.00000000E+00  0.00000000E+00
  0.00000000E+00  0.00000000E+00  0.00000000E+00
  0.00000000E+00  0.00000000E+00  0.00000000E+00
  0.00000000E+00  0.00000000E+00  0.00000000E+00
  0.00000000E+00  0.00000000E+00  0.00000000E+00
  0.00000000E+00  0.00000000E+00  0.00000000E+00
  0.00000000E+00  0.00000000E+00  0.00000000E+00
  0.00000000E+00  0.00000000E+00  0.00000000E+00
  0.00000000E+00  0.00000000E+00  0.00000000E+00
  0.00000000E+00  0.00000000E+00  0.00000000E+00
  0.00000000E+00  0.00000000E+00  0.00000000E+00
