 H  C Cu                                
   1.00000000000000     
    10.2710469276006560    0.0000000000000000    0.0000000000000006
     2.5677617319001635    6.2897060242006209    0.0000000000000005
     0.0000000000000000    0.0000000000000000   32.6149543968023465
   H    C    Cu
     2     2    48
Selective dynamics
Direct
  0.2193585220162376  0.3796643181410108  0.3137788930275228   T   T   T
  0.8048922200111939  0.6212960758200020  0.6866966548527134   T   T   T
  0.2388855804820253  0.3233377390174518  0.3455908393315467   T   T   T
  0.7873654943395312  0.6737868348995355  0.6546123286562141   T   T   T
  0.1534586224973638  0.1577709870277529  0.3744837145729928   T   T   T
  0.4121927065508350  0.1677370819586332  0.3740421709489619   T   T   T
  0.6595931230938694  0.1661395202459394  0.3765402366316075   T   T   T
  0.9057415332490473  0.1664447045938469  0.3766310394810893   T   T   T
  0.2434707780720401  0.8299188882010993  0.4195014856127888   T   T   T
  0.7440709284386895  0.8275173958685036  0.4182237835974943   T   T   T
  0.9934497060778041  0.8305230793426623  0.4186835641604535   T   T   T
  0.4942671698740698  0.8306013963085844  0.4183038965977218   T   T   T
  0.7015024320401684  0.4974322649309187  0.3965218685946812   T   T   T
  0.9501330449621781  0.4969763443270817  0.3968901678883156   T   T   T
  0.1986355689474283  0.5100288706149090  0.3935925319810311   T   T   T
  0.4531516782190051  0.4988753019594176  0.3975138473615287   T   T   T
  0.3268102038023102  0.4967576674194092  0.4659090909090935   F   F   F
  0.0768102038023102  0.4967576674194092  0.4659090909090935   F   F   F
  0.5768102038023102  0.4967576674194092  0.4659090909090935   F   F   F
  0.8268102038023102  0.4967576674194092  0.4659090909090935   F   F   F
  0.3684768704689745  0.8300910007527449  0.4886363636363669   F   F   F
  0.1184768704689745  0.8300910007527449  0.4886363636363669   F   F   F
  0.8684768704689745  0.8300910007527449  0.4886363636363669   F   F   F
  0.6184768704689745  0.8300910007527449  0.4886363636363669   F   F   F
  0.9101435371356459  0.1634243340860735  0.5113636363636331   F   F   F
  0.1601435371356459  0.1634243340860735  0.5113636363636331   F   F   F
  0.4101435371356459  0.1634243340860735  0.5113636363636331   F   F   F
  0.6601435371356459  0.1634243340860735  0.5113636363636331   F   F   F
  0.2851435371356459  0.1634243340860735  0.4431818181818201   F   F   F
  0.5351435371356459  0.1634243340860735  0.4431818181818201   F   F   F
  0.0351435371356459  0.1634243340860735  0.4431818181818201   F   F   F
  0.7851435371356459  0.1634243340860735  0.4431818181818201   F   F   F
  0.7018102038023102  0.4967576674194092  0.5340909090909065   F   F   F
  0.9518102038023102  0.4967576674194092  0.5340909090909065   F   F   F
  0.2018102038023102  0.4967576674194092  0.5340909090909065   F   F   F
  0.4518102038023102  0.4967576674194092  0.5340909090909065   F   F   F
  0.4934768704689745  0.8300910007527449  0.5568181818181799   F   F   F
  0.7434768704689745  0.8300910007527449  0.5568181818181799   F   F   F
  0.9934768704689745  0.8300910007527449  0.5568181818181799   F   F   F
  0.2434768704689745  0.8300910007527449  0.5568181818181799   F   F   F
  0.3273400036742299  0.4965682104869562  0.6035025348664534   T   T   T
  0.0788016329721975  0.4968956300335755  0.6030619718544145   T   T   T
  0.8300477399559774  0.4844709561195134  0.6069050578395463   T   T   T
  0.5757307870646290  0.4955405842424656  0.6025481371726223   T   T   T
  0.5344471103060755  0.1640142134434755  0.5815372967574254   T   T   T
  0.2848219132424668  0.1662339387480842  0.5817913288509401   T   T   T
  0.0350828720734704  0.1637465201415440  0.5813554625809602   T   T   T
  0.7853829060629726  0.1642473068085314  0.5805689120129279   T   T   T
  0.3686773743551012  0.8280304317549945  0.6234836453315697   T   T   T
  0.1226718160016138  0.8276772212480107  0.6233541271046580   T   T   T
  0.8749849504990695  0.8359264807400186  0.6255346818042196   T   T   T
  0.6151448974775475  0.8287236591546222  0.6258278582694684   T   T   T
 
  0.00000000E+00  0.00000000E+00  0.00000000E+00
  0.00000000E+00  0.00000000E+00  0.00000000E+00
  0.00000000E+00  0.00000000E+00  0.00000000E+00
  0.00000000E+00  0.00000000E+00  0.00000000E+00
  0.00000000E+00  0.00000000E+00  0.00000000E+00
  0.00000000E+00  0.00000000E+00  0.00000000E+00
  0.00000000E+00  0.00000000E+00  0.00000000E+00
  0.00000000E+00  0.00000000E+00  0.00000000E+00
  0.00000000E+00  0.00000000E+00  0.00000000E+00
  0.00000000E+00  0.00000000E+00  0.00000000E+00
  0.00000000E+00  0.00000000E+00  0.00000000E+00
  0.00000000E+00  0.00000000E+00  0.00000000E+00
  0.00000000E+00  0.00000000E+00  0.00000000E+00
  0.00000000E+00  0.00000000E+00  0.00000000E+00
  0.00000000E+00  0.00000000E+00  0.00000000E+00
  0.00000000E+00  0.00000000E+00  0.00000000E+00
  0.00000000E+00  0.00000000E+00  0.00000000E+00
  0.00000000E+00  0.00000000E+00  0.00000000E+00
  0.00000000E+00  0.00000000E+00  0.00000000E+00
  0.00000000E+00  0.00000000E+00  0.00000000E+00
  0.00000000E+00  0.00000000E+00  0.00000000E+00
  0.00000000E+00  0.00000000E+00  0.00000000E+00
  0.00000000E+00  0.00000000E+00  0.00000000E+00
  0.00000000E+00  0.00000000E+00  0.00000000E+00
  0.00000000E+00  0.00000000E+00  0.00000000E+00
  0.00000000E+00  0.00000000E+00  0.00000000E+00
  0.00000000E+00  0.00000000E+00  0.00000000E+00
  0.00000000E+00  0.00000000E+00  0.00000000E+00
  0.00000000E+00  0.00000000E+00  0.00000000E+00
  0.00000000E+00  0.00000000E+00  0.00000000E+00
  0.00000000E+00  0.00000000E+00  0.00000000E+00
  0.00000000E+00  0.00000000E+00  0.00000000E+00
  0.00000000E+00  0.00000000E+00  0.00000000E+00
  0.00000000E+00  0.00000000E+00  0.00000000E+00
  0.00000000E+00  0.00000000E+00  0.00000000E+00
  0.00000000E+00  0.00000000E+00  0.00000000E+00
  0.00000000E+00  0.00000000E+00  0.00000000E+00
  0.00000000E+00  0.00000000E+00  0.00000000E+00
  0.00000000E+00  0.00000000E+00  0.00000000E+00
  0.00000000E+00  0.00000000E+00  0.00000000E+00
  0.00000000E+00  0.00000000E+00  0.00000000E+00
  0.00000000E+00  0.00000000E+00  0.00000000E+00
  0.00000000E+00  0.00000000E+00  0.00000000E+00
  0.00000000E+00  0.00000000E+00  0.00000000E+00
  0.00000000E+00  0.00000000E+00  0.00000000E+00
  0.00000000E+00  0.00000000E+00  0.00000000E+00
  0.00000000E+00  0.00000000E+00  0.00000000E+00
  0.00000000E+00  0.00000000E+00  0.00000000E+00
  0.00000000E+00  0.00000000E+00  0.00000000E+00
  0.00000000E+00  0.00000000E+00  0.00000000E+00
  0.00000000E+00  0.00000000E+00  0.00000000E+00
  0.00000000E+00  0.00000000E+00  0.00000000E+00
