Cu  O  C 
 1.0000000000000000
    10.2710469276006560    0.0000000000000000    0.0000000000000006
     2.5677617319001635    6.2897060242006209    0.0000000000000005
     0.0000000000000000    0.0000000000000000   30.0000000000000000
 Cu  O   C  
  48   2   2
Selective dynamics
Cartesian
  7.0613432868708603  5.2414180717432295 16.8529876943911141   F   F   F
  9.6291050187710248  5.2414180717432295 16.8529876943911141   F   F   F
 12.1968667506711892  5.2414180717432295 16.8529876943911141   F   F   F
  4.4935815549706968  5.2414180717432295 16.8529876943911141   F   F   F
  7.0585360915553021  3.1326460668950435 18.3397476493278617   T   T   T
  9.6375262282806595  3.1271724566814161 18.3434576622710743   T   T   T
  1.9330519620922191  3.1282187761887532 18.3652661319608619   T   T   T
  4.4949371803904699  3.1332435206360993 18.3649765405671381   T   T   T
  8.3430862062963964  1.0558891011139657 17.6597902596919631   T   T   T
  0.6472711643216330  1.0566545071663414 17.6629351995326616   T   T   T
  3.2150386731358407  1.0581780141201405 17.6650931739863601   T   T   T
  5.7789979857452609  1.0585984099835462 17.6459113745851859   T   T   T
  8.3498573505040152  5.2516138853657832 19.1051728691221818   T   T   T
 10.9358759432051080  5.2263332797331108 19.0161747711443851   T   T   T
  3.2145872589681241  5.2214265125407202 19.0338722479106721   T   T   T
  5.7573631269418986  5.2239101721521397 19.0220621184806902   T   T   T
  9.6291050187710425  3.1448493970096738 13.8879918401365039   F   F   F
  1.9258198230705506  3.1448493970096738 13.8879918401365021   F   F   F
  4.4935815549707145  3.1448493970096738 13.8879918401365039   F   F   F
  7.0613432868708781  3.1448493970096738 13.8879918401365039   F   F   F
  9.6291050187710621  1.0482807222761190 15.3704897672636918   F   F   F
  1.9258198230705692  1.0482807222761190 15.3704897672636918   F   F   F
  4.4935815549707323  1.0482807222761190 15.3704897672636918   F   F   F
  7.0613432868708967  1.0482807222761190 15.3704897672636918   F   F   F
  8.3452241528209434  5.2414180717432295 14.6292408037002151   F   F   F
 10.9129858847211079  5.2414180717432295 14.6292408037002133   F   F   F
  3.2097006890206141  5.2414180717432295 14.6292408037002151   F   F   F
  5.7774624209207781  5.2414180717432295 14.6292408037002151   F   F   F
  8.3452241528209612  3.1448493970096738 16.1117387308274047   F   F   F
 10.9129858847211256  3.1448493970096738 16.1117387308274047   F   F   F
  3.2097006890206328  3.1448493970096738 16.1117387308274047   F   F   F
  5.7774624209207959  3.1448493970096738 16.1117387308274047   F   F   F
  7.0809138300260539  1.0657954309659992 10.9775406214585356   T   T   T
  9.6246634282066523  1.0676572340291730 10.9658747070899913   T   T   T
  1.9032967470203168  1.0630174405280692 10.9835278368157550   T   T   T
  4.4888858357648171  1.0383530792233304 10.8944017003484088   T   T   T
  9.6234260598623944  5.2316118340701756 12.3348656871453155   T   T   T
 12.1911711508534477  5.2329695422266349 12.3371640565604004   T   T   T
  4.4957599145209768  5.2336805925960270 12.3402794178052133   T   T   T
  7.0597702212579359  5.2311999075490760 12.3536604353273507   T   T   T
  8.3444789281930358  3.1561939598676272 11.6345111340975471   T   T   T
 10.9060172149989398  3.1613712985361810 11.6341549990290982   T   T   T
  3.2015711064604977  3.1624151485593686 11.6567287604658745   T   T   T
  5.7809886691418555  3.1567804578946150 11.6603069740884333   T   T   T
  5.7774624209208154  1.0482807222761190 13.1467428765727927   F   F   F
  8.3452241528209825  1.0482807222761190 13.1467428765727927   F   F   F
  0.6419389571204871  1.0482807222761190 13.1467428765727909   F   F   F
  3.2097006890206510  1.0482807222761190 13.1467428765727909   F   F   F
  8.3454028620184211  5.2371305776928461 22.1307729712378602   T   T   T
  4.4931565348244096  1.0523850270912256  7.8692270287621398   T   T   T
  8.3457430181385561  5.2906011085299678 20.9786899274043392   T   T   T
  4.4928404493075851  0.9991049156706534  9.0211551214449788   T   T   T
