Cu                                      
   1.00000000000000     
    10.2710469276006560    0.0000000000000000    0.0000000000000006
     2.5677617319001635    6.2897060242006209    0.0000000000000005
     0.0000000000000000    0.0000000000000000   30.0000000000000000
   Cu
    48
Selective dynamics
Direct
  0.4934768704689745  0.8300910007527449  0.6053533202436796   F   F   F
  0.7434768704689745  0.8300910007527449  0.6053533202436796   F   F   F
  0.9934768704689745  0.8300910007527449  0.6053533202436796   F   F   F
  0.2434768704689745  0.8300910007527449  0.6053533202436796   F   F   F
  0.5771084184673412  0.4959475928104585  0.6556120139128794   T   T   T
  0.8271084115839692  0.4959474824226230  0.6556120530495682   T   T   T
  0.0771085885728020  0.4959474395326806  0.6556120613521519   T   T   T
  0.3271084273717596  0.4959474628225767  0.6556120532082094   T   T   T
  0.7846504354941489  0.1657350766877861  0.6320222106493075   T   T   T
  0.0346504910901122  0.1657350691673481  0.6320221911862519   T   T   T
  0.2846504129471968  0.1657352046051898  0.6320221565142453   T   T   T
  0.5346502673441174  0.1657351934347073  0.6320221660635151   T   T   T
  0.6187097985444080  0.8293736606018731  0.6779715962555675   T   T   T
  0.8687099238598898  0.8293733410954299  0.6779715368900574   T   T   T
  0.1187098316038453  0.8293734707947158  0.6779715933046144   T   T   T
  0.3687097398630042  0.8293736212388249  0.6779715591714901   T   T   T
  0.8268102038023102  0.4967576674194092  0.5065201251018578   F   F   F
  0.0768102038023102  0.4967576674194092  0.5065201251018578   F   F   F
  0.3268102038023102  0.4967576674194092  0.5065201251018578   F   F   F
  0.5768102038023102  0.4967576674194092  0.5065201251018578   F   F   F
  0.9101435371356459  0.1634243340860735  0.5559367226727616   F   F   F
  0.1601435371356459  0.1634243340860735  0.5559367226727616   F   F   F
  0.4101435371356459  0.1634243340860735  0.5559367226727616   F   F   F
  0.6601435371356459  0.1634243340860735  0.5559367226727616   F   F   F
  0.6184768704689745  0.8300910007527449  0.5312284238873133   F   F   F
  0.8684768704689745  0.8300910007527449  0.5312284238873133   F   F   F
  0.1184768704689745  0.8300910007527449  0.5312284238873133   F   F   F
  0.3684768704689745  0.8300910007527449  0.5312284238873133   F   F   F
  0.7018102038023102  0.4967576674194092  0.5806450214582242   F   F   F
  0.9518102038023102  0.4967576674194092  0.5806450214582242   F   F   F
  0.2018102038023102  0.4967576674194092  0.5806450214582242   F   F   F
  0.4518102038023102  0.4967576674194092  0.5806450214582242   F   F   F
  0.6599114070793640  0.1641254195654678  0.4091948695230577   T   T   T
  0.9099114926853383  0.1641252765075641  0.4091948072231326   T   T   T
  0.1599114255108880  0.1641252863128128  0.4091948586613679   T   T   T
  0.4099112810687202  0.1641253698449157  0.4091948120828279   T   T   T
  0.7439497887342236  0.8278182709582372  0.4551419538037579   T   T   T
  0.9939498619050365  0.8278182398159257  0.4551419214040787   T   T   T
  0.2439497968211718  0.8278184131356519  0.4551419063943294   T   T   T
  0.4939496724915159  0.8278183432615616  0.4551419357887257   T   T   T
  0.7015705324393502  0.4975329112512440  0.4315504379240440   T   T   T
  0.9515707869509162  0.4975327740539801  0.4315504408438542   T   T   T
  0.2015705103864745  0.4975328522977893  0.4315504294600389   T   T   T
  0.4515705932619326  0.4975330588634997  0.4315504435157360   T   T   T
  0.5351435371356459  0.1634243340860735  0.4818118263164024   F   F   F
  0.7851435371356459  0.1634243340860735  0.4818118263164024   F   F   F
  0.0351435371356459  0.1634243340860735  0.4818118263164024   F   F   F
  0.2851435371356459  0.1634243340860735  0.4818118263164024   F   F   F
 
  0.00000000E+00  0.00000000E+00  0.00000000E+00
  0.00000000E+00  0.00000000E+00  0.00000000E+00
  0.00000000E+00  0.00000000E+00  0.00000000E+00
  0.00000000E+00  0.00000000E+00  0.00000000E+00
  0.00000000E+00  0.00000000E+00  0.00000000E+00
  0.00000000E+00  0.00000000E+00  0.00000000E+00
  0.00000000E+00  0.00000000E+00  0.00000000E+00
  0.00000000E+00  0.00000000E+00  0.00000000E+00
  0.00000000E+00  0.00000000E+00  0.00000000E+00
  0.00000000E+00  0.00000000E+00  0.00000000E+00
  0.00000000E+00  0.00000000E+00  0.00000000E+00
  0.00000000E+00  0.00000000E+00  0.00000000E+00
  0.00000000E+00  0.00000000E+00  0.00000000E+00
  0.00000000E+00  0.00000000E+00  0.00000000E+00
  0.00000000E+00  0.00000000E+00  0.00000000E+00
  0.00000000E+00  0.00000000E+00  0.00000000E+00
  0.00000000E+00  0.00000000E+00  0.00000000E+00
  0.00000000E+00  0.00000000E+00  0.00000000E+00
  0.00000000E+00  0.00000000E+00  0.00000000E+00
  0.00000000E+00  0.00000000E+00  0.00000000E+00
  0.00000000E+00  0.00000000E+00  0.00000000E+00
  0.00000000E+00  0.00000000E+00  0.00000000E+00
  0.00000000E+00  0.00000000E+00  0.00000000E+00
  0.00000000E+00  0.00000000E+00  0.00000000E+00
  0.00000000E+00  0.00000000E+00  0.00000000E+00
  0.00000000E+00  0.00000000E+00  0.00000000E+00
  0.00000000E+00  0.00000000E+00  0.00000000E+00
  0.00000000E+00  0.00000000E+00  0.00000000E+00
  0.00000000E+00  0.00000000E+00  0.00000000E+00
  0.00000000E+00  0.00000000E+00  0.00000000E+00
  0.00000000E+00  0.00000000E+00  0.00000000E+00
  0.00000000E+00  0.00000000E+00  0.00000000E+00
  0.00000000E+00  0.00000000E+00  0.00000000E+00
  0.00000000E+00  0.00000000E+00  0.00000000E+00
  0.00000000E+00  0.00000000E+00  0.00000000E+00
  0.00000000E+00  0.00000000E+00  0.00000000E+00
  0.00000000E+00  0.00000000E+00  0.00000000E+00
  0.00000000E+00  0.00000000E+00  0.00000000E+00
  0.00000000E+00  0.00000000E+00  0.00000000E+00
  0.00000000E+00  0.00000000E+00  0.00000000E+00
  0.00000000E+00  0.00000000E+00  0.00000000E+00
  0.00000000E+00  0.00000000E+00  0.00000000E+00
  0.00000000E+00  0.00000000E+00  0.00000000E+00
  0.00000000E+00  0.00000000E+00  0.00000000E+00
  0.00000000E+00  0.00000000E+00  0.00000000E+00
  0.00000000E+00  0.00000000E+00  0.00000000E+00
  0.00000000E+00  0.00000000E+00  0.00000000E+00
  0.00000000E+00  0.00000000E+00  0.00000000E+00
