 O  H                                   
   1.00000000000000     
    10.0000000000000000    0.0000000000000000    0.0000000000000000
     0.0000000000000000   10.0000000000000000    0.0000000000000000
     0.0000000000000000    0.0000000000000000   10.0000000000000000
   O    H 
     1     1
Direct
  0.4999892608624519  0.4980149265646153  0.5583179345648134
  0.5042068751925557  0.5014186406317899  0.6560641980178431
 
  0.00000000E+00  0.00000000E+00  0.00000000E+00
  0.00000000E+00  0.00000000E+00  0.00000000E+00
