Cu                                      
   1.00000000000000     
    10.2710469276006560    0.0000000000000000    0.0000000000000006
     2.5677617319001635    6.2897060242006209    0.0000000000000005
     0.0000000000000000    0.0000000000000000   40.0000000000000000
   Cu
    48
Selective dynamics
Direct
  0.4791813809195062  0.8333333333333357  0.5463271358903086   F   F   F
  0.7291813809195062  0.8333333333333357  0.5463271358903086   F   F   F
  0.9791813809195062  0.8333333333333357  0.5463271358903086   F   F   F
  0.2291813809195062  0.8333333333333357  0.5463271358903086   F   F   F
  0.5628022141014029  0.4992679977484471  0.5840597845332027   T   T   T
  0.8128020421899365  0.4992678066575138  0.5840598151794509   T   T   T
  0.0628023190885401  0.4992679341756698  0.5840598217177018   T   T   T
  0.3128021133297594  0.4992679723948044  0.5840598158361487   T   T   T
  0.7703703774649213  0.1689587833639266  0.5663918738153200   T   T   T
  0.0203703576473231  0.1689586650687218  0.5663918723051466   T   T   T
  0.2703704385929697  0.1689587978274361  0.5663918381059574   T   T   T
  0.5203703044104415  0.1689587278601437  0.5663918379310431   T   T   T
  0.6044329693069201  0.8324881014224630  0.6007653792894914   T   T   T
  0.8544330888576752  0.8324878939361824  0.6007653939481301   T   T   T
  0.1044330259674666  0.8324878844116341  0.6007653667301582   T   T   T
  0.3544329332580958  0.8324880154221859  0.6007653391814429   T   T   T
  0.8125147142528419  0.5000000000000000  0.4722022395339422   F   F   F
  0.0625147142528419  0.5000000000000000  0.4722022395339422   F   F   F
  0.3125147142528419  0.5000000000000000  0.4722022395339422   F   F   F
  0.5625147142528419  0.5000000000000000  0.4722022395339422   F   F   F
  0.8958480475861776  0.1666666666666643  0.5092646877121183   F   F   F
  0.1458480475861776  0.1666666666666643  0.5092646877121183   F   F   F
  0.3958480475861776  0.1666666666666643  0.5092646877121183   F   F   F
  0.6458480475861776  0.1666666666666643  0.5092646877121183   F   F   F
  0.6041813809195062  0.8333333333333357  0.4907334636230303   F   F   F
  0.8541813809195062  0.8333333333333357  0.4907334636230303   F   F   F
  0.1041813809195062  0.8333333333333357  0.4907334636230303   F   F   F
  0.3541813809195062  0.8333333333333357  0.4907334636230303   F   F   F
  0.6875147142528419  0.5000000000000000  0.5277959118012134   F   F   F
  0.9375147142528419  0.5000000000000000  0.5277959118012134   F   F   F
  0.1875147142528419  0.5000000000000000  0.5277959118012134   F   F   F
  0.4375147142528419  0.5000000000000000  0.5277959118012134   F   F   F
  0.6455970683668113  0.1674963527820452  0.3992346599032501   T   T   T
  0.8955970815776695  0.1674962684511527  0.3992346328592404   T   T   T
  0.1455970812792629  0.1674962211804569  0.3992346060518699   T   T   T
  0.3955969392563006  0.1674963406785253  0.3992346460765361   T   T   T
  0.7296296662381607  0.8311095780346278  0.4336048216218984   T   T   T
  0.9796296423526769  0.8311096381661329  0.4336047883913992   T   T   T
  0.2296296897848151  0.8311097536939940  0.4336047857433840   T   T   T
  0.4796295689012240  0.8311097088814208  0.4336047920872730   T   T   T
  0.6872899103325523  0.5006743563688474  0.4159353299066524   T   T   T
  0.9372901281450154  0.5006742282515120  0.4159353428352475   T   T   T
  0.1872898884535488  0.5006741716493437  0.4159353331626079   T   T   T
  0.4372900466240566  0.5006744369589455  0.4159353408180806   T   T   T
  0.5208480475861776  0.1666666666666643  0.4536710154448471   F   F   F
  0.7708480475861776  0.1666666666666643  0.4536710154448471   F   F   F
  0.0208480475861776  0.1666666666666643  0.4536710154448471   F   F   F
  0.2708480475861776  0.1666666666666643  0.4536710154448471   F   F   F
 
  0.00000000E+00  0.00000000E+00  0.00000000E+00
  0.00000000E+00  0.00000000E+00  0.00000000E+00
  0.00000000E+00  0.00000000E+00  0.00000000E+00
  0.00000000E+00  0.00000000E+00  0.00000000E+00
  0.00000000E+00  0.00000000E+00  0.00000000E+00
  0.00000000E+00  0.00000000E+00  0.00000000E+00
  0.00000000E+00  0.00000000E+00  0.00000000E+00
  0.00000000E+00  0.00000000E+00  0.00000000E+00
  0.00000000E+00  0.00000000E+00  0.00000000E+00
  0.00000000E+00  0.00000000E+00  0.00000000E+00
  0.00000000E+00  0.00000000E+00  0.00000000E+00
  0.00000000E+00  0.00000000E+00  0.00000000E+00
  0.00000000E+00  0.00000000E+00  0.00000000E+00
  0.00000000E+00  0.00000000E+00  0.00000000E+00
  0.00000000E+00  0.00000000E+00  0.00000000E+00
  0.00000000E+00  0.00000000E+00  0.00000000E+00
  0.00000000E+00  0.00000000E+00  0.00000000E+00
  0.00000000E+00  0.00000000E+00  0.00000000E+00
  0.00000000E+00  0.00000000E+00  0.00000000E+00
  0.00000000E+00  0.00000000E+00  0.00000000E+00
  0.00000000E+00  0.00000000E+00  0.00000000E+00
  0.00000000E+00  0.00000000E+00  0.00000000E+00
  0.00000000E+00  0.00000000E+00  0.00000000E+00
  0.00000000E+00  0.00000000E+00  0.00000000E+00
  0.00000000E+00  0.00000000E+00  0.00000000E+00
  0.00000000E+00  0.00000000E+00  0.00000000E+00
  0.00000000E+00  0.00000000E+00  0.00000000E+00
  0.00000000E+00  0.00000000E+00  0.00000000E+00
  0.00000000E+00  0.00000000E+00  0.00000000E+00
  0.00000000E+00  0.00000000E+00  0.00000000E+00
  0.00000000E+00  0.00000000E+00  0.00000000E+00
  0.00000000E+00  0.00000000E+00  0.00000000E+00
  0.00000000E+00  0.00000000E+00  0.00000000E+00
  0.00000000E+00  0.00000000E+00  0.00000000E+00
  0.00000000E+00  0.00000000E+00  0.00000000E+00
  0.00000000E+00  0.00000000E+00  0.00000000E+00
  0.00000000E+00  0.00000000E+00  0.00000000E+00
  0.00000000E+00  0.00000000E+00  0.00000000E+00
  0.00000000E+00  0.00000000E+00  0.00000000E+00
  0.00000000E+00  0.00000000E+00  0.00000000E+00
  0.00000000E+00  0.00000000E+00  0.00000000E+00
  0.00000000E+00  0.00000000E+00  0.00000000E+00
  0.00000000E+00  0.00000000E+00  0.00000000E+00
  0.00000000E+00  0.00000000E+00  0.00000000E+00
  0.00000000E+00  0.00000000E+00  0.00000000E+00
  0.00000000E+00  0.00000000E+00  0.00000000E+00
  0.00000000E+00  0.00000000E+00  0.00000000E+00
  0.00000000E+00  0.00000000E+00  0.00000000E+00
