Cu                                      
   1.00000000000000     
    10.2710469276006560    0.0000000000000000    0.0000000000000006
     2.5677617319001635    6.2897060242006209    0.0000000000000005
     0.0000000000000000    0.0000000000000000   30.0000000000000000
   Cu
    48
Selective dynamics
Direct
  0.4934768704689745  0.8300910007527449  0.6053533202436796   F   F   F
  0.7434768704689745  0.8300910007527449  0.6053533202436796   F   F   F
  0.9934768704689745  0.8300910007527449  0.6053533202436796   F   F   F
  0.2434768704689745  0.8300910007527449  0.6053533202436796   F   F   F
  0.5770977036508711  0.4960256651678563  0.6556635184342028   T   T   T
  0.8270975317394047  0.4960254740769230  0.6556635592958742   T   T   T
  0.0770978086380083  0.4960256015950790  0.6556635680135372   T   T   T
  0.3270976028792276  0.4960256398142135  0.6556635601714689   T   T   T
  0.7846658670143896  0.1657164507833357  0.6321063041436901   T   T   T
  0.0346658471967913  0.1657163324881310  0.6321063021301327   T   T   T
  0.2846659281424380  0.1657164652468452  0.6321062565312090   T   T   T
  0.5346657939599098  0.1657163952795528  0.6321062562979947   T   T   T
  0.6187284588563884  0.8292457688418722  0.6779376447759233   T   T   T
  0.8687285784071435  0.8292455613555916  0.6779376643207797   T   T   T
  0.1187285155169349  0.8292455518310433  0.6779376280301435   T   T   T
  0.3687284228075640  0.8292456828415951  0.6779375912985302   T   T   T
  0.8268102038023102  0.4967576674194092  0.5065201251018578   F   F   F
  0.0768102038023102  0.4967576674194092  0.5065201251018578   F   F   F
  0.3268102038023102  0.4967576674194092  0.5065201251018578   F   F   F
  0.5768102038023102  0.4967576674194092  0.5065201251018578   F   F   F
  0.9101435371356459  0.1634243340860735  0.5559367226727616   F   F   F
  0.1601435371356459  0.1634243340860735  0.5559367226727616   F   F   F
  0.4101435371356459  0.1634243340860735  0.5559367226727616   F   F   F
  0.6601435371356459  0.1634243340860735  0.5559367226727616   F   F   F
  0.6184768704689745  0.8300910007527449  0.5312284238873133   F   F   F
  0.8684768704689745  0.8300910007527449  0.5312284238873133   F   F   F
  0.1184768704689745  0.8300910007527449  0.5312284238873133   F   F   F
  0.3684768704689745  0.8300910007527449  0.5312284238873133   F   F   F
  0.7018102038023102  0.4967576674194092  0.5806450214582242   F   F   F
  0.9518102038023102  0.4967576674194092  0.5806450214582242   F   F   F
  0.2018102038023102  0.4967576674194092  0.5806450214582242   F   F   F
  0.4518102038023102  0.4967576674194092  0.5806450214582242   F   F   F
  0.6598925579162795  0.1642540202014544  0.4092300189276017   T   T   T
  0.9098925711271377  0.1642539358705619  0.4092299828689221   T   T   T
  0.1598925708287311  0.1642538885998661  0.4092299471257590   T   T   T
  0.4098924288057688  0.1642540080979344  0.4092300004919878   T   T   T
  0.7439251557876290  0.8278672454540370  0.4550569012191374   T   T   T
  0.9939251319021452  0.8278673055855421  0.4550568569117956   T   T   T
  0.2439251793342834  0.8278674211134032  0.4550568533811159   T   T   T
  0.4939250584506922  0.8278673763008300  0.4550568618396298   T   T   T
  0.7015853998820205  0.4974320237882566  0.4314975789321451   T   T   T
  0.9515856176944837  0.4974318956709212  0.4314975961702672   T   T   T
  0.2015853780030170  0.4974318390687529  0.4314975832734120   T   T   T
  0.4515855361735248  0.4974321043783547  0.4314975934807066   T   T   T
  0.5351435371356459  0.1634243340860735  0.4818118263164024   F   F   F
  0.7851435371356459  0.1634243340860735  0.4818118263164024   F   F   F
  0.0351435371356459  0.1634243340860735  0.4818118263164024   F   F   F
  0.2851435371356459  0.1634243340860735  0.4818118263164024   F   F   F
 
  0.00000000E+00  0.00000000E+00  0.00000000E+00
  0.00000000E+00  0.00000000E+00  0.00000000E+00
  0.00000000E+00  0.00000000E+00  0.00000000E+00
  0.00000000E+00  0.00000000E+00  0.00000000E+00
  0.00000000E+00  0.00000000E+00  0.00000000E+00
  0.00000000E+00  0.00000000E+00  0.00000000E+00
  0.00000000E+00  0.00000000E+00  0.00000000E+00
  0.00000000E+00  0.00000000E+00  0.00000000E+00
  0.00000000E+00  0.00000000E+00  0.00000000E+00
  0.00000000E+00  0.00000000E+00  0.00000000E+00
  0.00000000E+00  0.00000000E+00  0.00000000E+00
  0.00000000E+00  0.00000000E+00  0.00000000E+00
  0.00000000E+00  0.00000000E+00  0.00000000E+00
  0.00000000E+00  0.00000000E+00  0.00000000E+00
  0.00000000E+00  0.00000000E+00  0.00000000E+00
  0.00000000E+00  0.00000000E+00  0.00000000E+00
  0.00000000E+00  0.00000000E+00  0.00000000E+00
  0.00000000E+00  0.00000000E+00  0.00000000E+00
  0.00000000E+00  0.00000000E+00  0.00000000E+00
  0.00000000E+00  0.00000000E+00  0.00000000E+00
  0.00000000E+00  0.00000000E+00  0.00000000E+00
  0.00000000E+00  0.00000000E+00  0.00000000E+00
  0.00000000E+00  0.00000000E+00  0.00000000E+00
  0.00000000E+00  0.00000000E+00  0.00000000E+00
  0.00000000E+00  0.00000000E+00  0.00000000E+00
  0.00000000E+00  0.00000000E+00  0.00000000E+00
  0.00000000E+00  0.00000000E+00  0.00000000E+00
  0.00000000E+00  0.00000000E+00  0.00000000E+00
  0.00000000E+00  0.00000000E+00  0.00000000E+00
  0.00000000E+00  0.00000000E+00  0.00000000E+00
  0.00000000E+00  0.00000000E+00  0.00000000E+00
  0.00000000E+00  0.00000000E+00  0.00000000E+00
  0.00000000E+00  0.00000000E+00  0.00000000E+00
  0.00000000E+00  0.00000000E+00  0.00000000E+00
  0.00000000E+00  0.00000000E+00  0.00000000E+00
  0.00000000E+00  0.00000000E+00  0.00000000E+00
  0.00000000E+00  0.00000000E+00  0.00000000E+00
  0.00000000E+00  0.00000000E+00  0.00000000E+00
  0.00000000E+00  0.00000000E+00  0.00000000E+00
  0.00000000E+00  0.00000000E+00  0.00000000E+00
  0.00000000E+00  0.00000000E+00  0.00000000E+00
  0.00000000E+00  0.00000000E+00  0.00000000E+00
  0.00000000E+00  0.00000000E+00  0.00000000E+00
  0.00000000E+00  0.00000000E+00  0.00000000E+00
  0.00000000E+00  0.00000000E+00  0.00000000E+00
  0.00000000E+00  0.00000000E+00  0.00000000E+00
  0.00000000E+00  0.00000000E+00  0.00000000E+00
  0.00000000E+00  0.00000000E+00  0.00000000E+00
