 C  O Cu                                
   1.00000000000000     
    10.2710469276006560    0.0000000000000000    0.0000000000000006
    -0.0000000000000006   10.2710469276006560    0.0000000000000006
     0.0000000000000000    0.0000000000000000   20.0000000000000000
   C    O    Cu
     2     2    64
Selective dynamics
Direct
  0.1852183562488663  0.1852183630582804  0.7342362038194844   T   T   T
  0.8147757764391969  0.8147757731115969  0.2657624340664049   T   T   T
  0.1874477665987130  0.1874478051684370  0.7919969032747695   T   T   T
  0.8125549436906065  0.8125549137924378  0.2080040148624219   T   T   T
  0.4390073029192803  0.1877851323535737  0.6349541251387971   T   T   T
  0.4374050930685022  0.4374050975535631  0.6347804455033590   T   T   T
  0.1878686900370743  0.1878686960822459  0.6404224014907255   T   T   T
  0.1872822952074179  0.6876082717906523  0.6358334387685156   T   T   T
  0.1876335225363769  0.9360173749593563  0.6352921596008859   T   T   T
  0.6876082724214294  0.1872822892408350  0.6358334402068462   T   T   T
  0.8127179649820830  0.3123942766903551  0.3641641798460994   T   T   T
  0.8123672206793918  0.0639837070337346  0.3647036224583202   T   T   T
  0.5609940095445252  0.8122182084279271  0.3650406116010349   T   T   T
  0.5625920906480529  0.5625920920895771  0.3652166082435064   T   T   T
  0.5623407532545633  0.3124013119344151  0.3643710359417618   T   T   T
  0.5621683044036755  0.0624092926659256  0.3647049886801470   T   T   T
  0.3124107087556477  0.0626330576078862  0.3643618378048427   T   T   T
  0.3123942668885386  0.8127179628735393  0.3641641823362749   T   T   T
  0.6875000000000000  0.6875000000000000  0.4546079566725538   F   F   F
  0.1875000000000000  0.9375000000000000  0.4546079566725538   F   F   F
  0.4375000000000000  0.9375000000000000  0.4546079566725538   F   F   F
  0.1875000000000000  0.6875000000000000  0.4546079566725538   F   F   F
  0.4375000000000000  0.6875000000000000  0.4546079566725538   F   F   F
  0.4375000000000000  0.4375000000000000  0.4546079566725538   F   F   F
  0.9375000000000000  0.1875000000000000  0.4546079566725538   F   F   F
  0.9375000000000000  0.4375000000000000  0.4546079566725538   F   F   F
  0.9375000000000000  0.6875000000000000  0.4546079566725538   F   F   F
  0.6875000000000000  0.9375000000000000  0.4546079566725538   F   F   F
  0.9375000000000000  0.9375000000000000  0.4546079566725538   F   F   F
  0.1875000000000000  0.1875000000000000  0.4546079566725538   F   F   F
  0.4375000000000000  0.1875000000000000  0.4546079566725538   F   F   F
  0.1875000000000000  0.4375000000000000  0.4546079566725538   F   F   F
  0.0625000000000000  0.3125000000000000  0.5453920433274462   F   F   F
  0.0625000000000000  0.5625000000000000  0.5453920433274462   F   F   F
  0.0625000000000000  0.8125000000000000  0.5453920433274462   F   F   F
  0.3125000000000000  0.0625000000000000  0.5453920433274462   F   F   F
  0.3125000000000000  0.5625000000000000  0.5453920433274462   F   F   F
  0.3125000000000000  0.3125000000000000  0.5453920433274462   F   F   F
  0.3125000000000000  0.8125000000000000  0.5453920433274462   F   F   F
  0.8125000000000000  0.0625000000000000  0.5453920433274462   F   F   F
  0.8125000000000000  0.3125000000000000  0.5453920433274462   F   F   F
  0.5625000000000000  0.3125000000000000  0.5453920433274462   F   F   F
  0.5625000000000000  0.5625000000000000  0.5453920433274462   F   F   F
  0.5625000000000000  0.0625000000000000  0.5453920433274462   F   F   F
  0.0625000000000000  0.0625000000000000  0.5453920433274462   F   F   F
  0.8125000000000000  0.5625000000000000  0.5453920433274462   F   F   F
  0.8125000000000000  0.8125000000000000  0.5453920433274462   F   F   F
  0.5625000000000000  0.8125000000000000  0.5453920433274462   F   F   F
  0.4378302482854699  0.9375912183764131  0.6352915699180629   T   T   T
  0.9373670835619269  0.6875907521432980  0.6356353239685295   T   T   T
  0.6876577502828347  0.6876577474337222  0.6355789892059488   T   T   T
  0.9373358217988972  0.9373358218297126  0.6349727833594676   T   T   T
  0.9375912175593426  0.4378302412869503  0.6352915703840377   T   T   T
  0.6875907539125826  0.9373670891605441  0.6356353210937059   T   T   T
  0.6875987273105865  0.4376585550742579  0.6356262879018061   T   T   T
  0.9360173593724882  0.1876335237382855  0.6352921580509634   T   T   T
  0.1877851371807218  0.4390073014116391  0.6349541280249817   T   T   T
  0.4376585501344968  0.6875987295110831  0.6356262860163773   T   T   T
  0.3123417188701504  0.3123417173430062  0.3644181319503714   T   T   T
  0.3124013146977964  0.5623407591388112  0.3643710364830620   T   T   T
  0.0624092919984574  0.5621683115828543  0.3647049867560261   T   T   T
  0.0639837155021941  0.8123672157741034  0.3647036259221415   T   T   T
  0.0626330603632596  0.3124107081707603  0.3643618381867476   T   T   T
  0.0626652628006891  0.0626652645093039  0.3650242688579828   T   T   T
  0.6875000000000000  0.1875000000000000  0.4546079566725538   F   F   F
  0.6875000000000000  0.4375000000000000  0.4546079566725538   F   F   F
  0.8122182086909288  0.5609940107239256  0.3650406142686689   T   T   T
  0.8121348778659727  0.8121348754462960  0.3595720451898441   T   T   T
 
  0.00000000E+00  0.00000000E+00  0.00000000E+00
  0.00000000E+00  0.00000000E+00  0.00000000E+00
  0.00000000E+00  0.00000000E+00  0.00000000E+00
  0.00000000E+00  0.00000000E+00  0.00000000E+00
  0.00000000E+00  0.00000000E+00  0.00000000E+00
  0.00000000E+00  0.00000000E+00  0.00000000E+00
  0.00000000E+00  0.00000000E+00  0.00000000E+00
  0.00000000E+00  0.00000000E+00  0.00000000E+00
  0.00000000E+00  0.00000000E+00  0.00000000E+00
  0.00000000E+00  0.00000000E+00  0.00000000E+00
  0.00000000E+00  0.00000000E+00  0.00000000E+00
  0.00000000E+00  0.00000000E+00  0.00000000E+00
  0.00000000E+00  0.00000000E+00  0.00000000E+00
  0.00000000E+00  0.00000000E+00  0.00000000E+00
  0.00000000E+00  0.00000000E+00  0.00000000E+00
  0.00000000E+00  0.00000000E+00  0.00000000E+00
  0.00000000E+00  0.00000000E+00  0.00000000E+00
  0.00000000E+00  0.00000000E+00  0.00000000E+00
  0.00000000E+00  0.00000000E+00  0.00000000E+00
  0.00000000E+00  0.00000000E+00  0.00000000E+00
  0.00000000E+00  0.00000000E+00  0.00000000E+00
  0.00000000E+00  0.00000000E+00  0.00000000E+00
  0.00000000E+00  0.00000000E+00  0.00000000E+00
  0.00000000E+00  0.00000000E+00  0.00000000E+00
  0.00000000E+00  0.00000000E+00  0.00000000E+00
  0.00000000E+00  0.00000000E+00  0.00000000E+00
  0.00000000E+00  0.00000000E+00  0.00000000E+00
  0.00000000E+00  0.00000000E+00  0.00000000E+00
  0.00000000E+00  0.00000000E+00  0.00000000E+00
  0.00000000E+00  0.00000000E+00  0.00000000E+00
  0.00000000E+00  0.00000000E+00  0.00000000E+00
  0.00000000E+00  0.00000000E+00  0.00000000E+00
  0.00000000E+00  0.00000000E+00  0.00000000E+00
  0.00000000E+00  0.00000000E+00  0.00000000E+00
  0.00000000E+00  0.00000000E+00  0.00000000E+00
  0.00000000E+00  0.00000000E+00  0.00000000E+00
  0.00000000E+00  0.00000000E+00  0.00000000E+00
  0.00000000E+00  0.00000000E+00  0.00000000E+00
  0.00000000E+00  0.00000000E+00  0.00000000E+00
  0.00000000E+00  0.00000000E+00  0.00000000E+00
  0.00000000E+00  0.00000000E+00  0.00000000E+00
  0.00000000E+00  0.00000000E+00  0.00000000E+00
  0.00000000E+00  0.00000000E+00  0.00000000E+00
  0.00000000E+00  0.00000000E+00  0.00000000E+00
  0.00000000E+00  0.00000000E+00  0.00000000E+00
  0.00000000E+00  0.00000000E+00  0.00000000E+00
  0.00000000E+00  0.00000000E+00  0.00000000E+00
  0.00000000E+00  0.00000000E+00  0.00000000E+00
  0.00000000E+00  0.00000000E+00  0.00000000E+00
  0.00000000E+00  0.00000000E+00  0.00000000E+00
  0.00000000E+00  0.00000000E+00  0.00000000E+00
  0.00000000E+00  0.00000000E+00  0.00000000E+00
  0.00000000E+00  0.00000000E+00  0.00000000E+00
  0.00000000E+00  0.00000000E+00  0.00000000E+00
  0.00000000E+00  0.00000000E+00  0.00000000E+00
  0.00000000E+00  0.00000000E+00  0.00000000E+00
  0.00000000E+00  0.00000000E+00  0.00000000E+00
  0.00000000E+00  0.00000000E+00  0.00000000E+00
  0.00000000E+00  0.00000000E+00  0.00000000E+00
  0.00000000E+00  0.00000000E+00  0.00000000E+00
  0.00000000E+00  0.00000000E+00  0.00000000E+00
  0.00000000E+00  0.00000000E+00  0.00000000E+00
  0.00000000E+00  0.00000000E+00  0.00000000E+00
  0.00000000E+00  0.00000000E+00  0.00000000E+00
  0.00000000E+00  0.00000000E+00  0.00000000E+00
  0.00000000E+00  0.00000000E+00  0.00000000E+00
  0.00000000E+00  0.00000000E+00  0.00000000E+00
  0.00000000E+00  0.00000000E+00  0.00000000E+00
