 H Cu 
 1.0000000000000000
    10.2710469276006560    0.0000000000000000    0.0000000000000006
     2.5677617319001635    6.2897060242006209    0.0000000000000005
     0.0000000000000000    0.0000000000000000   20.0000000000000000
 H   Cu 
   2  48
Selective dynamics
Cartesian
  4.5505901636857189  1.0241358298440542  4.3594216396187857   T   T   T
  8.2882184958151086  5.2655701943565738 15.6405783603812125   T   T   T
  1.9258212989251233  1.0482843373667696  5.9231307003997058   T   T   T
  7.0613447627254544  1.0482843373667696  5.9231307003997067   T   T   T
  8.3452256286755429  3.1448530121003180  6.6643796639633983   T   T   T
 10.9129873605756949  3.1448530121003180  6.6643796639633983   T   T   T
  9.6291064946256171  1.0482843373667696  5.9231307003997067   T   T   T
  4.4935830308252935  1.0482843373667696  5.9231307003997093   T   T   T
  7.0613447627254553  5.2414216868338555  7.4056286275270864   T   T   T
  9.6291064946256171  5.2414216868338555  7.4056286275270864   T   T   T
  4.4935830308252935  5.2414216868338555  7.4056286275270864   T   T   T
 12.1968682265257762  5.2414216868338555  7.4056286275270899   T   T   T
  3.2097021648752100  1.0482843373667665  8.1468775910907762   F   F   F
  5.7774638967753775  1.0482843373667665  8.1468775910907762   F   F   F
  3.2097021648752095  3.1448530121003180  6.6643796639633992   T   T   T
  5.7774638967753749  3.1448530121003180  6.6643796639633983   T   T   T
  4.4935830308252918  3.1448530121003180  8.8881265546544661   F   F   F
  7.0613447627254553  3.1448530121003180  8.8881265546544661   F   F   F
  1.9258212989251224  3.1448530121003180  8.8881265546544661   F   F   F
  9.6291064946256206  3.1448530121003180  8.8881265546544697   F   F   F
  5.7774638967753651  5.2414216868338555  9.6293755182181560   F   F   F
  3.2097021648752047  5.2414216868338555  9.6293755182181560   F   F   F
 10.9129873605756931  5.2414216868338555  9.6293755182181595   F   F   F
  8.3452256286755322  5.2414216868338555  9.6293755182181595   F   F   F
  9.6291064946256206  1.0482843373667687 10.3706244817818476   F   F   F
  7.0613447627254597  1.0482843373667687 10.3706244817818476   F   F   F
  1.9258212989251218  1.0482843373667687 10.3706244817818476   F   F   F
  4.4935830308252918  1.0482843373667687 10.3706244817818476   F   F   F
  5.7774638967753784  3.1448530121003180 11.1118734453455374   F   F   F
  3.2097021648752153  3.1448530121003180 11.1118734453455374   F   F   F
  0.6419404329750402  1.0482843373667665  8.1468775910907780   F   F   F
  8.3452256286755446  1.0482843373667665  8.1468775910907798   F   F   F
  8.3452256286755429  3.1448530121003180 11.1118734453455374   F   F   F
 10.9129873605756949  3.1448530121003180 11.1118734453455374   F   F   F
  7.0613447627254571  5.2414216868338555 11.8531224089092273   F   F   F
  9.6291064946256206  5.2414216868338555 11.8531224089092273   F   F   F
  5.7774638967753775  1.0482843373667687 12.5943713724729349   T   T   T
  3.2097021648752131  1.0482843373667687 12.5943713724729349   T   T   T
 12.1968682265257780  5.2414216868338555 11.8531224089092255   F   F   F
  4.4935830308252935  5.2414216868338555 11.8531224089092273   F   F   F
  9.6291064946256189  3.1448530121003189 13.3356203360366070   T   T   T
  7.0613447627254535  3.1448530121003189 13.3356203360366070   T   T   T
  4.4935830308252926  3.1448530121003189 13.3356203360366088   T   T   T
  1.9258212989251231  3.1448530121003189 13.3356203360366088   T   T   T
  8.3452256286755340  5.2414216868338555 14.0768692996002969   T   T   T
 10.9129873605756966  5.2414216868338555 14.0768692996002951   T   T   T
  0.6419404329750410  1.0482843373667687 12.5943713724729349   T   T   T
  8.3452256286755446  1.0482843373667687 12.5943713724729349   T   T   T
  5.7774638967753695  5.2414216868338555 14.0768692996002969   T   T   T
  3.2097021648752069  5.2414216868338555 14.0768692996002969   T   T   T
