Cu48 C2 O2                              
   1.00000000000000     
    10.2710469276006560    0.0000000000000000    0.0000000000000006
     2.5677617319001635    6.2897060242006209    0.0000000000000005
     0.0000000000000000    0.0000000000000000   32.6149543968023465
   Cu   O    C 
    48     2     2
Selective dynamics
Direct
  0.4934768704689745  0.8300910007527449  0.5568181818181799   F   F   F
  0.7434768704689745  0.8300910007527449  0.5568181818181799   F   F   F
  0.9934768704689745  0.8300910007527449  0.5568181818181799   F   F   F
  0.2434768704689745  0.8300910007527449  0.5568181818181799   F   F   F
  0.5770614034409582  0.4947881015952894  0.6025541270805060   T   T   T
  0.8282629544853570  0.4939128577720931  0.6026159409045502   T   T   T
  0.0781997454642987  0.4941740904987361  0.6033220370152151   T   T   T
  0.3274108562915292  0.4948904141726549  0.6033293999768414   T   T   T
  0.7846516861747328  0.1645820726506907  0.5815217252743021   T   T   T
  0.0354783196075997  0.1646223423314958  0.5816044028507820   T   T   T
  0.2853055162636057  0.1651332880956437  0.5817017929105621   T   T   T
  0.5348824308608042  0.1650400241390796  0.5811095681195975   T   T   T
  0.6185892004434522  0.8316474898761520  0.6257847082674193   T   T   T
  0.8713630606377953  0.8276299736041088  0.6232202830613998   T   T   T
  0.1196589507769710  0.8271358196730989  0.6238361019870099   T   T   T
  0.3671512447932382  0.8274486538241985  0.6234206986516120   T   T   T
  0.8268102038023102  0.4967576674194092  0.4659090909090935   F   F   F
  0.0768102038023102  0.4967576674194092  0.4659090909090935   F   F   F
  0.3268102038023102  0.4967576674194092  0.4659090909090935   F   F   F
  0.5768102038023102  0.4967576674194092  0.4659090909090935   F   F   F
  0.9101435371356459  0.1634243340860735  0.5113636363636331   F   F   F
  0.1601435371356459  0.1634243340860735  0.5113636363636331   F   F   F
  0.4101435371356459  0.1634243340860735  0.5113636363636331   F   F   F
  0.6601435371356459  0.1634243340860735  0.5113636363636331   F   F   F
  0.6184768704689745  0.8300910007527449  0.4886363636363669   F   F   F
  0.8684768704689745  0.8300910007527449  0.4886363636363669   F   F   F
  0.1184768704689745  0.8300910007527449  0.4886363636363669   F   F   F
  0.3684768704689745  0.8300910007527449  0.4886363636363669   F   F   F
  0.7018102038023102  0.4967576674194092  0.5340909090909065   F   F   F
  0.9518102038023102  0.4967576674194092  0.5340909090909065   F   F   F
  0.2018102038023102  0.4967576674194092  0.5340909090909065   F   F   F
  0.4518102038023102  0.4967576674194092  0.5340909090909065   F   F   F
  0.6614261411523216  0.1660715582556830  0.3765775521447510   T   T   T
  0.9090205661982149  0.1662938567331458  0.3761668293899594   T   T   T
  0.1573040066673088  0.1658306356908786  0.3767809783498682   T   T   T
  0.4100198952626785  0.1618939223956770  0.3742138545546795   T   T   T
  0.7432815161899274  0.8284032562687500  0.4183040446839852   T   T   T
  0.9931086972014533  0.8288885942017281  0.4184050410670979   T   T   T
  0.2439793454591685  0.8289131327647475  0.4184877158243720   T   T   T
  0.4937339156800550  0.8284922329496142  0.4188847798087466   T   T   T
  0.7012773278603077  0.4985862270351112  0.3966661660441618   T   T   T
  0.9504505552924566  0.4993213512719293  0.3966712355912473   T   T   T
  0.2003859572710957  0.4995812621024054  0.3973971153918467   T   T   T
  0.4516308739775383  0.4986832491738752  0.3974560705104935   T   T   T
  0.5351435371356459  0.1634243340860735  0.4431818181818201   F   F   F
  0.7851435371356459  0.1634243340860735  0.4431818181818201   F   F   F
  0.0351435371356459  0.1634243340860735  0.4431818181818201   F   F   F
  0.2851435371356459  0.1634243340860735  0.4431818181818201   F   F   F
  0.6187059562111422  0.8291858893557658  0.7186145936491152   T   T   T
  0.4099002663105835  0.1643002303142471  0.2813900599581390   T   T   T
  0.6166028475069101  0.8378875921281714  0.6833016446290829   T   T   T
  0.4119954417200004  0.1556345343409276  0.3167048816399574   T   T   T
 
  0.00000000E+00  0.00000000E+00  0.00000000E+00
  0.00000000E+00  0.00000000E+00  0.00000000E+00
  0.00000000E+00  0.00000000E+00  0.00000000E+00
  0.00000000E+00  0.00000000E+00  0.00000000E+00
  0.00000000E+00  0.00000000E+00  0.00000000E+00
  0.00000000E+00  0.00000000E+00  0.00000000E+00
  0.00000000E+00  0.00000000E+00  0.00000000E+00
  0.00000000E+00  0.00000000E+00  0.00000000E+00
  0.00000000E+00  0.00000000E+00  0.00000000E+00
  0.00000000E+00  0.00000000E+00  0.00000000E+00
  0.00000000E+00  0.00000000E+00  0.00000000E+00
  0.00000000E+00  0.00000000E+00  0.00000000E+00
  0.00000000E+00  0.00000000E+00  0.00000000E+00
  0.00000000E+00  0.00000000E+00  0.00000000E+00
  0.00000000E+00  0.00000000E+00  0.00000000E+00
  0.00000000E+00  0.00000000E+00  0.00000000E+00
  0.00000000E+00  0.00000000E+00  0.00000000E+00
  0.00000000E+00  0.00000000E+00  0.00000000E+00
  0.00000000E+00  0.00000000E+00  0.00000000E+00
  0.00000000E+00  0.00000000E+00  0.00000000E+00
  0.00000000E+00  0.00000000E+00  0.00000000E+00
  0.00000000E+00  0.00000000E+00  0.00000000E+00
  0.00000000E+00  0.00000000E+00  0.00000000E+00
  0.00000000E+00  0.00000000E+00  0.00000000E+00
  0.00000000E+00  0.00000000E+00  0.00000000E+00
  0.00000000E+00  0.00000000E+00  0.00000000E+00
  0.00000000E+00  0.00000000E+00  0.00000000E+00
  0.00000000E+00  0.00000000E+00  0.00000000E+00
  0.00000000E+00  0.00000000E+00  0.00000000E+00
  0.00000000E+00  0.00000000E+00  0.00000000E+00
  0.00000000E+00  0.00000000E+00  0.00000000E+00
  0.00000000E+00  0.00000000E+00  0.00000000E+00
  0.00000000E+00  0.00000000E+00  0.00000000E+00
  0.00000000E+00  0.00000000E+00  0.00000000E+00
  0.00000000E+00  0.00000000E+00  0.00000000E+00
  0.00000000E+00  0.00000000E+00  0.00000000E+00
  0.00000000E+00  0.00000000E+00  0.00000000E+00
  0.00000000E+00  0.00000000E+00  0.00000000E+00
  0.00000000E+00  0.00000000E+00  0.00000000E+00
  0.00000000E+00  0.00000000E+00  0.00000000E+00
  0.00000000E+00  0.00000000E+00  0.00000000E+00
  0.00000000E+00  0.00000000E+00  0.00000000E+00
  0.00000000E+00  0.00000000E+00  0.00000000E+00
  0.00000000E+00  0.00000000E+00  0.00000000E+00
  0.00000000E+00  0.00000000E+00  0.00000000E+00
  0.00000000E+00  0.00000000E+00  0.00000000E+00
  0.00000000E+00  0.00000000E+00  0.00000000E+00
  0.00000000E+00  0.00000000E+00  0.00000000E+00
  0.00000000E+00  0.00000000E+00  0.00000000E+00
  0.00000000E+00  0.00000000E+00  0.00000000E+00
  0.00000000E+00  0.00000000E+00  0.00000000E+00
  0.00000000E+00  0.00000000E+00  0.00000000E+00
