 C  O Cu 
 1.0000000000000000
    10.2710469276006560    0.0000000000000000    0.0000000000000006
     2.5677617319001635    6.2897060242006209    0.0000000000000005
     0.0000000000000000    0.0000000000000000   20.0000000000000000
 C   O   Cu 
   2   4  48
Selective dynamics
Cartesian
  6.8635050772393580  1.0354579702304529  3.1877467500787837   T   T   T
  5.4554363401293831  5.3715975328282948 14.4462467736453828   T   T   T
  6.8446634868490301  2.2658880748672319  2.5824642913394342   T   T   T
  9.3968187422477332  6.1210365978158050  2.5141621259263762   T   T   T
  5.4742779305197118  4.1411674281915181 15.0515292323847341   T   T   T
  2.9221226751210083  0.2860189052429433 15.1198313977977890   T   T   T
  1.6658876778590812  1.1069590767958297  4.7401274622617766   T   T   T
  4.2336494097592512  1.1069590767958297  4.7401274622617811   T   T   T
  4.2336494097592503  5.3000964262629093  6.2226253893891590   T   T   T
  9.3691728735595721  5.3000964262629093  6.2226253893891608   T   T   T
  6.8014111416594121  1.1069590767958297  4.7401274622617802   T   T   T
  9.3691728735595721  1.1069590767958297  4.7401274622617802   T   T   T
  5.5175302757093325  3.2035277515293790  5.4813764258254736   T   T   T
  8.0852920076094961  3.2035277515293790  5.4813764258254736   T   T   T
  2.9497685438091672  3.2035277515293790  5.4813764258254745   T   T   T
 10.6530537395096498  3.2035277515293790  5.4813764258254745   T   T   T
  4.2336494097592485  3.2035277515293790  7.7051233165165405   F   F   F
  1.6658876778590803  3.2035277515293790  7.7051233165165405   F   F   F
  6.8014111416594130  3.2035277515293790  7.7051233165165405   F   F   F
  9.3691728735595738  3.2035277515293790  7.7051233165165405   F   F   F
  5.5175302757093236  5.3000964262629093  8.4463722800802277   F   F   F
  2.9497685438091605  5.3000964262629093  8.4463722800802277   F   F   F
 10.6530537395096498  5.3000964262629093  8.4463722800802294   F   F   F
  8.0852920076094872  5.3000964262629093  8.4463722800802312   F   F   F
  9.3691728735595756  1.1069590767958282  9.1876212436439211   F   F   F
  1.6658876778590785  1.1069590767958282  9.1876212436439193   F   F   F
  6.8014111416594112  5.3000964262629093  6.2226253893891634   T   T   T
 11.9369346054597312  5.3000964262629093  6.2226253893891661   T   T   T
 10.6530537395096552  1.1069590767958268  6.9638743529528506   F   F   F
  2.9497685438091672  1.1069590767958268  6.9638743529528506   F   F   F
  5.5175302757093343  1.1069590767958268  6.9638743529528506   F   F   F
  8.0852920076095014  1.1069590767958268  6.9638743529528506   F   F   F
 10.6530537395096498  3.2035277515293790  9.9288702072076198   F   F   F
  5.5175302757093370  3.2035277515293790  9.9288702072076163   F   F   F
  8.0852920076094996  3.2035277515293790  9.9288702072076163   F   F   F
  2.9497685438091712  3.2035277515293790  9.9288702072076127   F   F   F
  6.8014111416594165  1.1069590767958282  9.1876212436439211   F   F   F
  4.2336494097592503  1.1069590767958282  9.1876212436439193   F   F   F
 11.9369346054597347  5.3000964262629093 10.6701191707712955   F   F   F
  9.3691728735595756  5.3000964262629093 10.6701191707713008   F   F   F
  4.2336494097592494  3.2035277515293803 12.1526170978986787   T   T   T
  1.6658876778590799  3.2035277515293803 12.1526170978986787   T   T   T
  4.2336494097592503  5.3000964262629093 10.6701191707713008   F   F   F
  6.8014111416594130  5.3000964262629093 10.6701191707713008   F   F   F
  5.5175302757093352  1.1069590767958282 11.4113681343350049   T   T   T
  2.9497685438091694  1.1069590767958282 11.4113681343350049   T   T   T
 10.6530537395096569  1.1069590767958282 11.4113681343350049   T   T   T
  8.0852920076094996  1.1069590767958282 11.4113681343350049   T   T   T
  5.5175302757093263  5.3000964262629102 12.8938660614623704   T   T   T
  2.9497685438091636  5.3000964262629102 12.8938660614623704   T   T   T
 10.6530537395096534  5.3000964262629102 12.8938660614623686   T   T   T
  8.0852920076094890  5.3000964262629102 12.8938660614623704   T   T   T
  6.8014111416594112  3.2035277515293803 12.1526170978986805   T   T   T
  9.3691728735595738  3.2035277515293803 12.1526170978986805   T   T   T
