Cu48 C2 O2                              
   1.00000000000000     
    10.2710469276006560    0.0000000000000000    0.0000000000000006
     2.5677617319001635    6.2897060242006209    0.0000000000000005
     0.0000000000000000    0.0000000000000000   32.6149543968023465
   Cu   O    C 
    48     2     2
Selective dynamics
Direct
  0.4934768704689745  0.8300910007527449  0.5568181818181799   F   F   F
  0.7434768704689745  0.8300910007527449  0.5568181818181799   F   F   F
  0.9934768704689745  0.8300910007527449  0.5568181818181799   F   F   F
  0.2434768704689745  0.8300910007527449  0.5568181818181799   F   F   F
  0.5769955909462715  0.4967578163057104  0.6064161665011506   T   T   T
  0.8279577827288919  0.5011934375447279  0.6025773370505128   T   T   T
  0.0768852346376324  0.4974947422296965  0.6031631848043020   T   T   T
  0.3234836105719296  0.5020825766816343  0.6028570758755138   T   T   T
  0.7861937430890972  0.1664893731842666  0.5811669420022515   T   T   T
  0.0353534594184710  0.1669959140136620  0.5814368423296349   T   T   T
  0.2834327932032237  0.1701354593250619  0.5815546429939035   T   T   T
  0.5318401479051963  0.1690177399968431  0.5804471847359450   T   T   T
  0.6181901958297819  0.8392241600808461  0.6233750964562770   T   T   T
  0.8697909602364222  0.8296610831883733  0.6238843278764675   T   T   T
  0.1172755446540685  0.8317548971964892  0.6238921738663197   T   T   T
  0.3641285027536124  0.8395074672343629  0.6235090042661824   T   T   T
  0.8268102038023102  0.4967576674194092  0.4659090909090935   F   F   F
  0.0768102038023102  0.4967576674194092  0.4659090909090935   F   F   F
  0.3268102038023102  0.4967576674194092  0.4659090909090935   F   F   F
  0.5768102038023102  0.4967576674194092  0.4659090909090935   F   F   F
  0.9101435371356459  0.1634243340860735  0.5113636363636331   F   F   F
  0.1601435371356459  0.1634243340860735  0.5113636363636331   F   F   F
  0.4101435371356459  0.1634243340860735  0.5113636363636331   F   F   F
  0.6601435371356459  0.1634243340860735  0.5113636363636331   F   F   F
  0.6184768704689745  0.8300910007527449  0.4886363636363669   F   F   F
  0.8684768704689745  0.8300910007527449  0.4886363636363669   F   F   F
  0.1184768704689745  0.8300910007527449  0.4886363636363669   F   F   F
  0.3684768704689745  0.8300910007527449  0.4886363636363669   F   F   F
  0.7018102038023102  0.4967576674194092  0.5340909090909065   F   F   F
  0.9518102038023102  0.4967576674194092  0.5340909090909065   F   F   F
  0.2018102038023102  0.4967576674194092  0.5340909090909065   F   F   F
  0.4518102038023102  0.4967576674194092  0.5340909090909065   F   F   F
  0.6644244456885385  0.1538889836523981  0.3764515957181068   T   T   T
  0.9111965555230277  0.1618690306869331  0.3760943833691635   T   T   T
  0.1587185466595997  0.1640797849490342  0.3761122422416256   T   T   T
  0.4102389262189474  0.1544231616492034  0.3765812361959002   T   T   T
  0.7451291512237457  0.8234909545375719  0.4184368936762282   T   T   T
  0.9933416540262673  0.8265710871269915  0.4185250797702057   T   T   T
  0.2424463814013835  0.8271585698877926  0.4188448646422037   T   T   T
  0.4967673172194987  0.8245781481601572  0.4195614352692865   T   T   T
  0.7049952828746217  0.4915816213501641  0.3971079179723608   T   T   T
  0.9516193001351096  0.4962859514799399  0.3968089765294930   T   T   T
  0.2006709495734704  0.4924299587875710  0.3973978038818778   T   T   T
  0.4517631487821885  0.4966575501607637  0.3936714506834254   T   T   T
  0.5351435371356459  0.1634243340860735  0.4431818181818201   F   F   F
  0.7851435371356459  0.1634243340860735  0.4431818181818201   F   F   F
  0.0351435371356459  0.1634243340860735  0.4431818181818201   F   F   F
  0.2851435371356459  0.1634243340860735  0.4431818181818201   F   F   F
  0.6089686061611541  0.3727922320406580  0.6967097953567490   T   T   T
  0.4192663777157253  0.6204712740166755  0.3033917624454694   T   T   T
  0.5959362437520392  0.4199464235733089  0.6625037714441565   T   T   T
  0.4323387732399870  0.5733427806606451  0.3376309309797753   T   T   T
 
  0.00000000E+00  0.00000000E+00  0.00000000E+00
  0.00000000E+00  0.00000000E+00  0.00000000E+00
  0.00000000E+00  0.00000000E+00  0.00000000E+00
  0.00000000E+00  0.00000000E+00  0.00000000E+00
  0.00000000E+00  0.00000000E+00  0.00000000E+00
  0.00000000E+00  0.00000000E+00  0.00000000E+00
  0.00000000E+00  0.00000000E+00  0.00000000E+00
  0.00000000E+00  0.00000000E+00  0.00000000E+00
  0.00000000E+00  0.00000000E+00  0.00000000E+00
  0.00000000E+00  0.00000000E+00  0.00000000E+00
  0.00000000E+00  0.00000000E+00  0.00000000E+00
  0.00000000E+00  0.00000000E+00  0.00000000E+00
  0.00000000E+00  0.00000000E+00  0.00000000E+00
  0.00000000E+00  0.00000000E+00  0.00000000E+00
  0.00000000E+00  0.00000000E+00  0.00000000E+00
  0.00000000E+00  0.00000000E+00  0.00000000E+00
  0.00000000E+00  0.00000000E+00  0.00000000E+00
  0.00000000E+00  0.00000000E+00  0.00000000E+00
  0.00000000E+00  0.00000000E+00  0.00000000E+00
  0.00000000E+00  0.00000000E+00  0.00000000E+00
  0.00000000E+00  0.00000000E+00  0.00000000E+00
  0.00000000E+00  0.00000000E+00  0.00000000E+00
  0.00000000E+00  0.00000000E+00  0.00000000E+00
  0.00000000E+00  0.00000000E+00  0.00000000E+00
  0.00000000E+00  0.00000000E+00  0.00000000E+00
  0.00000000E+00  0.00000000E+00  0.00000000E+00
  0.00000000E+00  0.00000000E+00  0.00000000E+00
  0.00000000E+00  0.00000000E+00  0.00000000E+00
  0.00000000E+00  0.00000000E+00  0.00000000E+00
  0.00000000E+00  0.00000000E+00  0.00000000E+00
  0.00000000E+00  0.00000000E+00  0.00000000E+00
  0.00000000E+00  0.00000000E+00  0.00000000E+00
  0.00000000E+00  0.00000000E+00  0.00000000E+00
  0.00000000E+00  0.00000000E+00  0.00000000E+00
  0.00000000E+00  0.00000000E+00  0.00000000E+00
  0.00000000E+00  0.00000000E+00  0.00000000E+00
  0.00000000E+00  0.00000000E+00  0.00000000E+00
  0.00000000E+00  0.00000000E+00  0.00000000E+00
  0.00000000E+00  0.00000000E+00  0.00000000E+00
  0.00000000E+00  0.00000000E+00  0.00000000E+00
  0.00000000E+00  0.00000000E+00  0.00000000E+00
  0.00000000E+00  0.00000000E+00  0.00000000E+00
  0.00000000E+00  0.00000000E+00  0.00000000E+00
  0.00000000E+00  0.00000000E+00  0.00000000E+00
  0.00000000E+00  0.00000000E+00  0.00000000E+00
  0.00000000E+00  0.00000000E+00  0.00000000E+00
  0.00000000E+00  0.00000000E+00  0.00000000E+00
  0.00000000E+00  0.00000000E+00  0.00000000E+00
  0.00000000E+00  0.00000000E+00  0.00000000E+00
  0.00000000E+00  0.00000000E+00  0.00000000E+00
  0.00000000E+00  0.00000000E+00  0.00000000E+00
  0.00000000E+00  0.00000000E+00  0.00000000E+00
