Cu                                      
   1.00000000000000     
    10.2710469276006560    0.0000000000000000    0.0000000000000006
     2.5677617319001635    6.2897060242006209    0.0000000000000005
     0.0000000000000000    0.0000000000000000   20.0000000000000000
   Cu
    48
Selective dynamics
Direct
  0.4791813809195062  0.8333333333333357  0.5926542717806100   F   F   F
  0.7291813809195062  0.8333333333333357  0.5926542717806100   F   F   F
  0.9791813809195062  0.8333333333333357  0.5926542717806100   F   F   F
  0.2291813809195062  0.8333333333333357  0.5926542717806100   F   F   F
  0.5628129077041535  0.4991889871056076  0.6680334519460132   T   T   T
  0.8128127960725374  0.4991887877623604  0.6680334786944521   T   T   T
  0.0628129697358768  0.4991888859607822  0.6680335063652665   T   T   T
  0.3128128389846654  0.4991889886945507  0.6680335316918881   T   T   T
  0.7703610021018985  0.1689725510073967  0.6326557272417576   T   T   T
  0.0203609284835399  0.1689724669821185  0.6326557547782025   T   T   T
  0.2703610011920536  0.1689725560142216  0.6326557179534433   T   T   T
  0.5203609850997181  0.1689725111289924  0.6326556951961388   T   T   T
  0.6044047370400514  0.8326208601078111  0.7015804526663221   T   T   T
  0.8544048693375531  0.8326207052421564  0.7015804773709817   T   T   T
  0.1044048273620112  0.8326207394614515  0.7015804329688680   T   T   T
  0.3544047186167250  0.8326208084737386  0.7015804004167772   T   T   T
  0.8125147142528419  0.5000000000000000  0.4444044790678845   F   F   F
  0.0625147142528419  0.5000000000000000  0.4444044790678845   F   F   F
  0.3125147142528419  0.5000000000000000  0.4444044790678845   F   F   F
  0.5625147142528419  0.5000000000000000  0.4444044790678845   F   F   F
  0.8958480475861776  0.1666666666666643  0.5185293754242437   F   F   F
  0.1458480475861776  0.1666666666666643  0.5185293754242437   F   F   F
  0.3958480475861776  0.1666666666666643  0.5185293754242437   F   F   F
  0.6458480475861776  0.1666666666666643  0.5185293754242437   F   F   F
  0.6041813809195062  0.8333333333333357  0.4814669272460677   F   F   F
  0.8541813809195062  0.8333333333333357  0.4814669272460677   F   F   F
  0.1041813809195062  0.8333333333333357  0.4814669272460677   F   F   F
  0.3541813809195062  0.8333333333333357  0.4814669272460677   F   F   F
  0.6875147142528419  0.5000000000000000  0.5555918236024269   F   F   F
  0.9375147142528419  0.5000000000000000  0.5555918236024269   F   F   F
  0.1875147142528419  0.5000000000000000  0.5555918236024269   F   F   F
  0.4375147142528419  0.5000000000000000  0.5555918236024269   F   F   F
  0.6456275425938333  0.1673644392503816  0.2984167619883477   T   T   T
  0.8956274311690408  0.1673644425842679  0.2984167250691513   T   T   T
  0.1456274511864909  0.1673643545092912  0.2984166639606649   T   T   T
  0.3956274219458443  0.1673644717924409  0.2984167431909804   T   T   T
  0.7296505432989590  0.8310628570215047  0.3673378212876455   T   T   T
  0.9796504581700800  0.8310629962130893  0.3673377436313768   T   T   T
  0.2296505587052114  0.8310629528124319  0.3673377476882618   T   T   T
  0.4796505225501365  0.8310630065669673  0.3673377578390559   T   T   T
  0.6872674741336522  0.5007769546564115  0.3319593373347106   T   T   T
  0.9372674647503761  0.5007769188701022  0.3319593658362587   T   T   T
  0.1872673947349760  0.5007769258149120  0.3319593447374226   T   T   T
  0.4372674898438453  0.5007770527366061  0.3319593366058258   T   T   T
  0.5208480475861776  0.1666666666666643  0.4073420308896942   F   F   F
  0.7708480475861776  0.1666666666666643  0.4073420308896942   F   F   F
  0.0208480475861776  0.1666666666666643  0.4073420308896942   F   F   F
  0.2708480475861776  0.1666666666666643  0.4073420308896942   F   F   F
 
  0.00000000E+00  0.00000000E+00  0.00000000E+00
  0.00000000E+00  0.00000000E+00  0.00000000E+00
  0.00000000E+00  0.00000000E+00  0.00000000E+00
  0.00000000E+00  0.00000000E+00  0.00000000E+00
  0.00000000E+00  0.00000000E+00  0.00000000E+00
  0.00000000E+00  0.00000000E+00  0.00000000E+00
  0.00000000E+00  0.00000000E+00  0.00000000E+00
  0.00000000E+00  0.00000000E+00  0.00000000E+00
  0.00000000E+00  0.00000000E+00  0.00000000E+00
  0.00000000E+00  0.00000000E+00  0.00000000E+00
  0.00000000E+00  0.00000000E+00  0.00000000E+00
  0.00000000E+00  0.00000000E+00  0.00000000E+00
  0.00000000E+00  0.00000000E+00  0.00000000E+00
  0.00000000E+00  0.00000000E+00  0.00000000E+00
  0.00000000E+00  0.00000000E+00  0.00000000E+00
  0.00000000E+00  0.00000000E+00  0.00000000E+00
  0.00000000E+00  0.00000000E+00  0.00000000E+00
  0.00000000E+00  0.00000000E+00  0.00000000E+00
  0.00000000E+00  0.00000000E+00  0.00000000E+00
  0.00000000E+00  0.00000000E+00  0.00000000E+00
  0.00000000E+00  0.00000000E+00  0.00000000E+00
  0.00000000E+00  0.00000000E+00  0.00000000E+00
  0.00000000E+00  0.00000000E+00  0.00000000E+00
  0.00000000E+00  0.00000000E+00  0.00000000E+00
  0.00000000E+00  0.00000000E+00  0.00000000E+00
  0.00000000E+00  0.00000000E+00  0.00000000E+00
  0.00000000E+00  0.00000000E+00  0.00000000E+00
  0.00000000E+00  0.00000000E+00  0.00000000E+00
  0.00000000E+00  0.00000000E+00  0.00000000E+00
  0.00000000E+00  0.00000000E+00  0.00000000E+00
  0.00000000E+00  0.00000000E+00  0.00000000E+00
  0.00000000E+00  0.00000000E+00  0.00000000E+00
  0.00000000E+00  0.00000000E+00  0.00000000E+00
  0.00000000E+00  0.00000000E+00  0.00000000E+00
  0.00000000E+00  0.00000000E+00  0.00000000E+00
  0.00000000E+00  0.00000000E+00  0.00000000E+00
  0.00000000E+00  0.00000000E+00  0.00000000E+00
  0.00000000E+00  0.00000000E+00  0.00000000E+00
  0.00000000E+00  0.00000000E+00  0.00000000E+00
  0.00000000E+00  0.00000000E+00  0.00000000E+00
  0.00000000E+00  0.00000000E+00  0.00000000E+00
  0.00000000E+00  0.00000000E+00  0.00000000E+00
  0.00000000E+00  0.00000000E+00  0.00000000E+00
  0.00000000E+00  0.00000000E+00  0.00000000E+00
  0.00000000E+00  0.00000000E+00  0.00000000E+00
  0.00000000E+00  0.00000000E+00  0.00000000E+00
  0.00000000E+00  0.00000000E+00  0.00000000E+00
  0.00000000E+00  0.00000000E+00  0.00000000E+00
