 H  C  O Cu                             
   1.00000000000000     
    10.2710469276006560    0.0000000000000000    0.0000000000000006
     2.5677617319001635    6.2897060242006209    0.0000000000000005
     0.0000000000000000    0.0000000000000000   30.0000000000000000
   H    C    O    Cu
     2     2     4    48
Selective dynamics
Direct
  0.3467730003670439  0.1255259440192944  0.2390643818891149   T   T   T
  0.6530618610109400  0.8743715228805158  0.7609356181108851   T   T   T
  0.6681129111668511  0.8638833009987010  0.6970656105610971   T   T   T
  0.3318159929525919  0.1361345352030980  0.3029267887124689   T   T   T
  0.4024453323857671  0.1342704427562467  0.2650008113812845   T   T   T
  0.2124094298683445  0.1237219335059265  0.2993782839331587   T   T   T
  0.7875205036157595  0.8762780664940735  0.7006234207612678   T   T   T
  0.5974416762581143  0.8656684117343190  0.7349821371134482   T   T   T
  0.1374564470096544  0.1614190505318689  0.3639554817165020   T   T   T
  0.6458395754708022  0.1720951410167686  0.3657173728872181   T   T   T
  0.8904127817308805  0.1710053219789174  0.3660144607719005   T   T   T
  0.4020469415478800  0.1636183386190595  0.3626955307803073   T   T   T
  0.6858257623530619  0.5038294372760461  0.3879916901474374   T   T   T
  0.9369183774190901  0.5005017794638604  0.3886418883749059   T   T   T
  0.1873053561975837  0.4995855867791548  0.3890999652834495   T   T   T
  0.4365128416981960  0.5016872871964040  0.3887568722283632   T   T   T
  0.3125020243079035  0.5000403564425184  0.4629061959652105   F   F   F
  0.5625020243079035  0.5000403564425184  0.4629061959652105   F   F   F
  0.0625020243079035  0.5000403564425184  0.4629061959652105   F   F   F
  0.8125020243079035  0.5000403564425184  0.4629061959652105   F   F   F
  0.3541686909745678  0.8333736897758541  0.4876144947506660   F   F   F
  0.1041686909745678  0.8333736897758541  0.4876144947506660   F   F   F
  0.8541686909745678  0.8333736897758541  0.4876144947506660   F   F   F
  0.6041686909745678  0.8333736897758541  0.4876144947506660   F   F   F
  0.4790631158995424  0.8326753151722812  0.4121332834690676   T   T   T
  0.7291336960097681  0.8329983541913109  0.4113508416895186   T   T   T
  0.2292893834704302  0.8308099708889216  0.4123762241525100   T   T   T
  0.9798975001930472  0.8318345474550810  0.4111260930235474   T   T   T
  0.2708353576412392  0.1667070231091827  0.4381978971797551   F   F   F
  0.5208353576412392  0.1667070231091827  0.4381978971797551   F   F   F
  0.0208353576412392  0.1667070231091827  0.4381978971797551   F   F   F
  0.7708353576412392  0.1667070231091827  0.4381978971797551   F   F   F
  0.6875020243079035  0.5000403564425184  0.5370310923215840   F   F   F
  0.9375020243079035  0.5000403564425184  0.5370310923215840   F   F   F
  0.1875020243079035  0.5000403564425184  0.5370310923215840   F   F   F
  0.4375020243079035  0.5000403564425184  0.5370310923215840   F   F   F
  0.3958353576412392  0.1667070231091827  0.5123227935361285   F   F   F
  0.1458353576412392  0.1667070231091827  0.5123227935361285   F   F   F
  0.6458353576412392  0.1667070231091827  0.5123227935361285   F   F   F
  0.8958353576412392  0.1667070231091827  0.5123227935361285   F   F   F
  0.4791686909745678  0.8333736897758541  0.5617393911070394   F   F   F
  0.7291686909745678  0.8333736897758541  0.5617393911070394   F   F   F
  0.9791686909745678  0.8333736897758541  0.5617393911070394   F   F   F
  0.2291686909745678  0.8333736897758541  0.5617393911070394   F   F   F
  0.5209467885214849  0.1674098423200263  0.5878120559471398   T   T   T
  0.2708591881170790  0.1671120809250937  0.5885894151714979   T   T   T
  0.0201024998069528  0.1682785382442091  0.5888153677100334   T   T   T
  0.7707170394453087  0.1692669059185121  0.5875734773266288   T   T   T
  0.3541616053580228  0.8280160180858402  0.6342208856745870   T   T   T
  0.1095831869763799  0.8291039003052418  0.6339239429400365   T   T   T
  0.8625111754364525  0.8386958367586601  0.6360264247968175   T   T   T
  0.5979772259656357  0.8364914654620321  0.6372771838508910   T   T   T
  0.0630640205386044  0.4996328830642582  0.6113014773815166   T   T   T
  0.3141748205289687  0.4962842365665523  0.6119493383108576   T   T   T
  0.5635023253130385  0.4984078020291847  0.6111834260440503   T   T   T
  0.8126955533957201  0.5005287823842579  0.6108402333089344   T   T   T
 
  0.00000000E+00  0.00000000E+00  0.00000000E+00
  0.00000000E+00  0.00000000E+00  0.00000000E+00
  0.00000000E+00  0.00000000E+00  0.00000000E+00
  0.00000000E+00  0.00000000E+00  0.00000000E+00
  0.00000000E+00  0.00000000E+00  0.00000000E+00
  0.00000000E+00  0.00000000E+00  0.00000000E+00
  0.00000000E+00  0.00000000E+00  0.00000000E+00
  0.00000000E+00  0.00000000E+00  0.00000000E+00
  0.00000000E+00  0.00000000E+00  0.00000000E+00
  0.00000000E+00  0.00000000E+00  0.00000000E+00
  0.00000000E+00  0.00000000E+00  0.00000000E+00
  0.00000000E+00  0.00000000E+00  0.00000000E+00
  0.00000000E+00  0.00000000E+00  0.00000000E+00
  0.00000000E+00  0.00000000E+00  0.00000000E+00
  0.00000000E+00  0.00000000E+00  0.00000000E+00
  0.00000000E+00  0.00000000E+00  0.00000000E+00
  0.00000000E+00  0.00000000E+00  0.00000000E+00
  0.00000000E+00  0.00000000E+00  0.00000000E+00
  0.00000000E+00  0.00000000E+00  0.00000000E+00
  0.00000000E+00  0.00000000E+00  0.00000000E+00
  0.00000000E+00  0.00000000E+00  0.00000000E+00
  0.00000000E+00  0.00000000E+00  0.00000000E+00
  0.00000000E+00  0.00000000E+00  0.00000000E+00
  0.00000000E+00  0.00000000E+00  0.00000000E+00
  0.00000000E+00  0.00000000E+00  0.00000000E+00
  0.00000000E+00  0.00000000E+00  0.00000000E+00
  0.00000000E+00  0.00000000E+00  0.00000000E+00
  0.00000000E+00  0.00000000E+00  0.00000000E+00
  0.00000000E+00  0.00000000E+00  0.00000000E+00
  0.00000000E+00  0.00000000E+00  0.00000000E+00
  0.00000000E+00  0.00000000E+00  0.00000000E+00
  0.00000000E+00  0.00000000E+00  0.00000000E+00
  0.00000000E+00  0.00000000E+00  0.00000000E+00
  0.00000000E+00  0.00000000E+00  0.00000000E+00
  0.00000000E+00  0.00000000E+00  0.00000000E+00
  0.00000000E+00  0.00000000E+00  0.00000000E+00
  0.00000000E+00  0.00000000E+00  0.00000000E+00
  0.00000000E+00  0.00000000E+00  0.00000000E+00
  0.00000000E+00  0.00000000E+00  0.00000000E+00
  0.00000000E+00  0.00000000E+00  0.00000000E+00
  0.00000000E+00  0.00000000E+00  0.00000000E+00
  0.00000000E+00  0.00000000E+00  0.00000000E+00
  0.00000000E+00  0.00000000E+00  0.00000000E+00
  0.00000000E+00  0.00000000E+00  0.00000000E+00
  0.00000000E+00  0.00000000E+00  0.00000000E+00
  0.00000000E+00  0.00000000E+00  0.00000000E+00
  0.00000000E+00  0.00000000E+00  0.00000000E+00
  0.00000000E+00  0.00000000E+00  0.00000000E+00
  0.00000000E+00  0.00000000E+00  0.00000000E+00
  0.00000000E+00  0.00000000E+00  0.00000000E+00
  0.00000000E+00  0.00000000E+00  0.00000000E+00
  0.00000000E+00  0.00000000E+00  0.00000000E+00
  0.00000000E+00  0.00000000E+00  0.00000000E+00
  0.00000000E+00  0.00000000E+00  0.00000000E+00
  0.00000000E+00  0.00000000E+00  0.00000000E+00
  0.00000000E+00  0.00000000E+00  0.00000000E+00
