Cu64 C1 O1
1.0
  10.2710469276006560    0.0000000000000000    0.0000000000000006
  -0.0000000000000006   10.2710469276006560    0.0000000000000006
   0.0000000000000000    0.0000000000000000   43.5763615943500682
Cu O C
64 1 1
Selective dynamics
direct
   0.0625000000000001    0.0625000000000001    0.5208333333333333 F F F Cu
   0.0625000000000001    0.3125000000000001    0.5208333333333333 F F F Cu
   0.0625000000000001    0.5625000000000001    0.5208333333333333 F F F Cu
   0.0625000000000001    0.8124999999999999    0.5208333333333333 F F F Cu
   0.3125000000000001    0.0625000000000001    0.5208333333333333 F F F Cu
   0.3125000000000001    0.3125000000000001    0.5208333333333333 F F F Cu
   0.3125000000000001    0.5625000000000001    0.5208333333333333 F F F Cu
   0.3125000000000001    0.8124999999999999    0.5208333333333333 F F F Cu
   0.5625000000000001    0.0625000000000001    0.5208333333333333 F F F Cu
   0.5625000000000001    0.3125000000000001    0.5208333333333333 F F F Cu
   0.5625000000000001    0.5625000000000001    0.5208333333333333 F F F Cu
   0.5625000000000000    0.8124999999999999    0.5208333333333334 F F F Cu
   0.8124999999999999    0.0625000000000001    0.5208333333333333 F F F Cu
   0.8124999999999999    0.3125000000000001    0.5208333333333333 F F F Cu
   0.8124999999999999    0.5625000000000001    0.5208333333333334 F F F Cu
   0.8124999999999999    0.8124999999999999    0.5208333333333334 F F F Cu
   0.1875000000000001    0.1875000000000001    0.5625000000000001 T T T Cu
   0.1875000000000001    0.4375000000000001    0.5625000000000001 T T T Cu
   0.1875000000000001    0.6875000000000001    0.5625000000000001 T T T Cu
   0.1875000000000001    0.9374999999999999    0.5625000000000001 T T T Cu
   0.4375000000000001    0.1875000000000001    0.5625000000000001 T T T Cu
   0.4374999999999999    0.4375000000000001    0.5625000000000001 T T T Cu
   0.4375000000000002    0.6875000000000001    0.5625000000000001 T T T Cu
   0.4375000000000002    0.9374999999999999    0.5625000000000000 T T T Cu
   0.6875000000000001    0.1875000000000001    0.5625000000000001 T T T Cu
   0.6875000000000001    0.4375000000000001    0.5625000000000001 T T T Cu
   0.6875000000000001    0.6875000000000001    0.5625000000000000 T T T Cu
   0.6875000000000000    0.9374999999999999    0.5625000000000000 T T T Cu
   0.9374999999999999    0.1875000000000001    0.5625000000000001 T T T Cu
   0.9374999999999999    0.4375000000000001    0.5625000000000000 T T T Cu
   0.9374999999999999    0.6875000000000001    0.5625000000000000 T T T Cu
   0.9374999999999999    0.9374999999999999    0.5625000000000000 T T T Cu
   0.0625000000000001    0.0625000000000001    0.4375000000000000 T T T Cu
   0.0625000000000001    0.3125000000000001    0.4374999999999999 T T T Cu
   0.0625000000000001    0.5625000000000001    0.4374999999999999 T T T Cu
   0.0625000000000001    0.8124999999999999    0.4374999999999999 T T T Cu
   0.3125000000000001    0.0625000000000001    0.4374999999999999 T T T Cu
   0.3125000000000001    0.3125000000000001    0.4374999999999999 T T T Cu
   0.3125000000000001    0.5625000000000001    0.4374999999999999 T T T Cu
   0.3125000000000001    0.8124999999999999    0.4374999999999999 T T T Cu
   0.5625000000000001    0.0625000000000001    0.4374999999999999 T T T Cu
   0.5625000000000001    0.3125000000000001    0.4374999999999999 T T T Cu
   0.5625000000000001    0.5625000000000001    0.4374999999999999 T T T Cu
   0.5625000000000000    0.8124999999999999    0.4374999999999999 T T T Cu
   0.8124999999999999    0.0625000000000001    0.4374999999999999 T T T Cu
   0.8124999999999999    0.3125000000000001    0.4374999999999999 T T T Cu
   0.8124999999999999    0.5625000000000001    0.4374999999999999 T T T Cu
   0.8124999999999999    0.8124999999999999    0.4374999999999999 T T T Cu
   0.1875000000000001    0.1875000000000001    0.4791666666666666 F F F Cu
   0.1875000000000001    0.4375000000000001    0.4791666666666666 F F F Cu
   0.1875000000000001    0.6875000000000001    0.4791666666666665 F F F Cu
   0.1875000000000001    0.9374999999999999    0.4791666666666665 F F F Cu
   0.4375000000000001    0.1875000000000001    0.4791666666666666 F F F Cu
   0.4374999999999999    0.4375000000000001    0.4791666666666665 F F F Cu
   0.4375000000000002    0.6875000000000001    0.4791666666666665 F F F Cu
   0.4375000000000002    0.9374999999999999    0.4791666666666665 F F F Cu
   0.6875000000000001    0.1875000000000001    0.4791666666666665 F F F Cu
   0.6875000000000001    0.4375000000000001    0.4791666666666665 F F F Cu
   0.6875000000000001    0.6875000000000001    0.4791666666666665 F F F Cu
   0.6875000000000000    0.9374999999999999    0.4791666666666665 F F F Cu
   0.9374999999999999    0.1875000000000001    0.4791666666666665 F F F Cu
   0.9374999999999999    0.4375000000000001    0.4791666666666665 F F F Cu
   0.9374999999999999    0.6875000000000001    0.4791666666666665 F F F Cu
   0.9374999999999999    0.9374999999999999    0.4791666666666665 F F F Cu
   0.4375000000000002    0.0624999999999998    0.6308857002046353 T T T O
   0.4375000000000002    0.0624999999999998    0.6049542098585824 T T T C
