 H  C  O                                
   1.00000000000000     
    10.0000000000000000    0.0000000000000000    0.0000000000000000
     0.0000000000000000   10.0000000000000000    0.0000000000000000
     0.0000000000000000    0.0000000000000000   10.0000000000000000
   H    C    O 
     1     2     2
Direct
  0.6010168537620503  0.5010007003131958  0.5939851078903130
  0.6202523355792788  0.4997709408224169  0.3967465632479679
  0.3804444599145446  0.4983403012734763  0.4074792474248198
  0.3605639174497253  0.4995665388449064  0.5226127992845335
  0.6611029940097418  0.4983868692540137  0.5143542861337643
 
  0.00000000E+00  0.00000000E+00  0.00000000E+00
  0.00000000E+00  0.00000000E+00  0.00000000E+00
  0.00000000E+00  0.00000000E+00  0.00000000E+00
  0.00000000E+00  0.00000000E+00  0.00000000E+00
  0.00000000E+00  0.00000000E+00  0.00000000E+00
