 H  C  O 
 1.0000000000000000
    10.0000000000000000    0.0000000000000000    0.0000000000000000
     0.0000000000000000   10.0000000000000000    0.0000000000000000
     0.0000000000000000    0.0000000000000000   10.0000000000000000
 H   C   O  
   1   2   2
Cartesian
  6.2338056071534176  5.0097821649733056  5.9768007286702947
  5.7936605999779731  4.9902178350266944  4.0231992713297053
  4.2063394000220269  4.9902178350266944  4.0231992713297053
  3.4936605999779706  4.9902178350266944  5.1642903842421468
  6.5063394000220303  4.9902178350266944  5.1642903842421504
