 H  C  O Cu                             
   1.00000000000000     
    10.2710469276006560    0.0000000000000000    0.0000000000000006
     2.5677617319001635    6.2897060242006209    0.0000000000000005
     0.0000000000000000    0.0000000000000000   30.0000000000000000
   H    C    O    Cu
     2     2     2    48
Selective dynamics
Direct
  0.4346371942340937  0.0000540187878856  0.2824135698452950   T   T   T
  0.5653598233815971  0.9999575007811725  0.7175845607622354   T   T   T
  0.6069155928674289  0.8367526921039043  0.7034089312332463   T   T   T
  0.3930716335776856  0.1632664064485238  0.2965875970550370   T   T   T
  0.3533180539874334  0.3169062206952591  0.2723529098473800   T   T   T
  0.6466625390343727  0.6831039718669575  0.7276465103285625   T   T   T
  0.1453021736259865  0.1678164178752802  0.3653679722719149   T   T   T
  0.6447993946170082  0.1685538821853011  0.3654689485656273   T   T   T
  0.4791990781919356  0.8326757753411176  0.4119432107119618   T   T   T
  0.7292764520354664  0.8314848926195253  0.4117628375527867   T   T   T
  0.8952380055602015  0.1685371069137556  0.3656462667907341   T   T   T
  0.3949591647098049  0.1679025179988910  0.3626411951000032   T   T   T
  0.6868422304801601  0.5013668442879446  0.3880174408576076   T   T   T
  0.9369330613531326  0.5010532174022032  0.3880612981589232   T   T   T
  0.1864550533687021  0.5014843326150156  0.3887912407566567   T   T   T
  0.4371330626714407  0.5014083349392601  0.3888181866238352   T   T   T
  0.3125013520641673  0.4999969479653643  0.4629303028390979   F   F   F
  0.5625013520641673  0.4999969479653643  0.4629303028390979   F   F   F
  0.0625013520641673  0.4999969479653643  0.4629303028390979   F   F   F
  0.8125013520641673  0.4999969479653643  0.4629303028390979   F   F   F
  0.3541680187308316  0.8333302812987000  0.4876386016245533   F   F   F
  0.1041680187308316  0.8333302812987000  0.4876386016245533   F   F   F
  0.8541680187308316  0.8333302812987000  0.4876386016245533   F   F   F
  0.6041680187308316  0.8333302812987000  0.4876386016245533   F   F   F
  0.8958346853975030  0.1666636146320286  0.5123469004100087   F   F   F
  0.6458346853975030  0.1666636146320286  0.5123469004100087   F   F   F
  0.2291538181777721  0.8316417447025095  0.4115527349718777   T   T   T
  0.9793171333081719  0.8318854170487269  0.4114522966306204   T   T   T
  0.2708346853975030  0.1666636146320286  0.4382220040536424   F   F   F
  0.5208346853975030  0.1666636146320286  0.4382220040536424   F   F   F
  0.0208346853975030  0.1666636146320286  0.4382220040536424   F   F   F
  0.7708346853975030  0.1666636146320286  0.4382220040536424   F   F   F
  0.6875013520641673  0.4999969479653643  0.5370551991954642   F   F   F
  0.9375013520641673  0.4999969479653643  0.5370551991954642   F   F   F
  0.1875013520641673  0.4999969479653643  0.5370551991954642   F   F   F
  0.4375013520641673  0.4999969479653643  0.5370551991954642   F   F   F
  0.3958346853975030  0.1666636146320286  0.5123469004100087   F   F   F
  0.1458346853975030  0.1666636146320286  0.5123469004100087   F   F   F
  0.4791680187308316  0.8333302812987000  0.5617634979809196   F   F   F
  0.7291680187308316  0.8333302812987000  0.5617634979809196   F   F   F
  0.8135430880510486  0.4985167788015737  0.6111954963214749   T   T   T
  0.5628680440110619  0.4985909993174457  0.6111686208016832   T   T   T
  0.9791680187308316  0.8333302812987000  0.5617634979809196   F   F   F
  0.2291680187308316  0.8333302812987000  0.5617634979809196   F   F   F
  0.5208059109354025  0.1673121969340227  0.5880440092104723   T   T   T
  0.2707260999294570  0.1685096172732601  0.5882218697478274   T   T   T
  0.0206836604402446  0.1681117917176639  0.5885324722624738   T   T   T
  0.7708486084090844  0.1683550326639744  0.5884322644558458   T   T   T
  0.3552011881417217  0.8314466966370296  0.6345181004398173   T   T   T
  0.1047617428685855  0.8314628778738097  0.6343402447981655   T   T   T
  0.8546951549301768  0.8321838030731998  0.6346194862267716   T   T   T
  0.6050405330934369  0.8320977500472813  0.6373532650007817   T   T   T
  0.0630673231950398  0.4989450590327341  0.6119248963123223   T   T   T
  0.3131590701483262  0.4986309533446989  0.6119687944716654   T   T   T
 
  0.00000000E+00  0.00000000E+00  0.00000000E+00
  0.00000000E+00  0.00000000E+00  0.00000000E+00
  0.00000000E+00  0.00000000E+00  0.00000000E+00
  0.00000000E+00  0.00000000E+00  0.00000000E+00
  0.00000000E+00  0.00000000E+00  0.00000000E+00
  0.00000000E+00  0.00000000E+00  0.00000000E+00
  0.00000000E+00  0.00000000E+00  0.00000000E+00
  0.00000000E+00  0.00000000E+00  0.00000000E+00
  0.00000000E+00  0.00000000E+00  0.00000000E+00
  0.00000000E+00  0.00000000E+00  0.00000000E+00
  0.00000000E+00  0.00000000E+00  0.00000000E+00
  0.00000000E+00  0.00000000E+00  0.00000000E+00
  0.00000000E+00  0.00000000E+00  0.00000000E+00
  0.00000000E+00  0.00000000E+00  0.00000000E+00
  0.00000000E+00  0.00000000E+00  0.00000000E+00
  0.00000000E+00  0.00000000E+00  0.00000000E+00
  0.00000000E+00  0.00000000E+00  0.00000000E+00
  0.00000000E+00  0.00000000E+00  0.00000000E+00
  0.00000000E+00  0.00000000E+00  0.00000000E+00
  0.00000000E+00  0.00000000E+00  0.00000000E+00
  0.00000000E+00  0.00000000E+00  0.00000000E+00
  0.00000000E+00  0.00000000E+00  0.00000000E+00
  0.00000000E+00  0.00000000E+00  0.00000000E+00
  0.00000000E+00  0.00000000E+00  0.00000000E+00
  0.00000000E+00  0.00000000E+00  0.00000000E+00
  0.00000000E+00  0.00000000E+00  0.00000000E+00
  0.00000000E+00  0.00000000E+00  0.00000000E+00
  0.00000000E+00  0.00000000E+00  0.00000000E+00
  0.00000000E+00  0.00000000E+00  0.00000000E+00
  0.00000000E+00  0.00000000E+00  0.00000000E+00
  0.00000000E+00  0.00000000E+00  0.00000000E+00
  0.00000000E+00  0.00000000E+00  0.00000000E+00
  0.00000000E+00  0.00000000E+00  0.00000000E+00
  0.00000000E+00  0.00000000E+00  0.00000000E+00
  0.00000000E+00  0.00000000E+00  0.00000000E+00
  0.00000000E+00  0.00000000E+00  0.00000000E+00
  0.00000000E+00  0.00000000E+00  0.00000000E+00
  0.00000000E+00  0.00000000E+00  0.00000000E+00
  0.00000000E+00  0.00000000E+00  0.00000000E+00
  0.00000000E+00  0.00000000E+00  0.00000000E+00
  0.00000000E+00  0.00000000E+00  0.00000000E+00
  0.00000000E+00  0.00000000E+00  0.00000000E+00
  0.00000000E+00  0.00000000E+00  0.00000000E+00
  0.00000000E+00  0.00000000E+00  0.00000000E+00
  0.00000000E+00  0.00000000E+00  0.00000000E+00
  0.00000000E+00  0.00000000E+00  0.00000000E+00
  0.00000000E+00  0.00000000E+00  0.00000000E+00
  0.00000000E+00  0.00000000E+00  0.00000000E+00
  0.00000000E+00  0.00000000E+00  0.00000000E+00
  0.00000000E+00  0.00000000E+00  0.00000000E+00
  0.00000000E+00  0.00000000E+00  0.00000000E+00
  0.00000000E+00  0.00000000E+00  0.00000000E+00
  0.00000000E+00  0.00000000E+00  0.00000000E+00
  0.00000000E+00  0.00000000E+00  0.00000000E+00
