Cu                                      
   1.00000000000000     
    10.2710469276006560    0.0000000000000000    0.0000000000000006
     2.5677617319001635    6.2897060242006209    0.0000000000000005
     0.0000000000000000    0.0000000000000000   40.0000000000000000
   Cu
    48
Selective dynamics
Direct
  0.4791813809195062  0.8333333333333357  0.5463271358903086   F   F   F
  0.7291813809195062  0.8333333333333357  0.5463271358903086   F   F   F
  0.9791813809195062  0.8333333333333357  0.5463271358903086   F   F   F
  0.2291813809195062  0.8333333333333357  0.5463271358903086   F   F   F
  0.5628130896593079  0.4991865744877431  0.5840171915532191   T   T   T
  0.8128129937254454  0.4991864259226342  0.5840172156325856   T   T   T
  0.0628131697648502  0.4991864923429992  0.5840172162461305   T   T   T
  0.3128130083321447  0.4991865566854059  0.5840172150988122   T   T   T
  0.7703611062126462  0.1689774357405065  0.5663295323011419   T   T   T
  0.0203610964946345  0.1689773943045574  0.5663295339034085   T   T   T
  0.2703611173242845  0.1689774979026518  0.5663295007352955   T   T   T
  0.5203610420751544  0.1689774326142391  0.5663294999608740   T   T   T
  0.6044068180286331  0.8326216171245597  0.6007878461529635   T   T   T
  0.8544069301108216  0.8326213873754896  0.6007878459833348   T   T   T
  0.1044068647871097  0.8326214369619044  0.6007878291915100   T   T   T
  0.3544067617321357  0.8326215551169189  0.6007878063879519   T   T   T
  0.8125147142528419  0.5000000000000000  0.4722022395339422   F   F   F
  0.0625147142528419  0.5000000000000000  0.4722022395339422   F   F   F
  0.3125147142528419  0.5000000000000000  0.4722022395339422   F   F   F
  0.5625147142528419  0.5000000000000000  0.4722022395339422   F   F   F
  0.8958480475861776  0.1666666666666643  0.5092646877121183   F   F   F
  0.1458480475861776  0.1666666666666643  0.5092646877121183   F   F   F
  0.3958480475861776  0.1666666666666643  0.5092646877121183   F   F   F
  0.6458480475861776  0.1666666666666643  0.5092646877121183   F   F   F
  0.6041813809195062  0.8333333333333357  0.4907334636230303   F   F   F
  0.8541813809195062  0.8333333333333357  0.4907334636230303   F   F   F
  0.1041813809195062  0.8333333333333357  0.4907334636230303   F   F   F
  0.3541813809195062  0.8333333333333357  0.4907334636230303   F   F   F
  0.6875147142528419  0.5000000000000000  0.5277959118012134   F   F   F
  0.9375147142528419  0.5000000000000000  0.5277959118012134   F   F   F
  0.1875147142528419  0.5000000000000000  0.5277959118012134   F   F   F
  0.4375147142528419  0.5000000000000000  0.5277959118012134   F   F   F
  0.6456254312540647  0.1673636226407778  0.3992107213644875   T   T   T
  0.8956254669845288  0.1673635866536528  0.3992106965237059   T   T   T
  0.1456254386332374  0.1673635078310108  0.3992106699578059   T   T   T
  0.3956253104707101  0.1673636655984614  0.3992107137879796   T   T   T
  0.7296503624401703  0.8310579421293911  0.4336672323347449   T   T   T
  0.9796503533585625  0.8310580082166235  0.4336671988874924   T   T   T
  0.2296503562328251  0.8310580970774109  0.4336671960421250   T   T   T
  0.4796502811091903  0.8310580887246372  0.4336672053344228   T   T   T
  0.6872670819740029  0.5007794232767461  0.4159792599097038   T   T   T
  0.9372672310709341  0.5007792599055499  0.4159792690832050   T   T   T
  0.1872670478322379  0.5007792611848653  0.4159792612952879   T   T   T
  0.4372671330730633  0.5007794796393242  0.4159792674262688   T   T   T
  0.5208480475861776  0.1666666666666643  0.4536710154448471   F   F   F
  0.7708480475861776  0.1666666666666643  0.4536710154448471   F   F   F
  0.0208480475861776  0.1666666666666643  0.4536710154448471   F   F   F
  0.2708480475861776  0.1666666666666643  0.4536710154448471   F   F   F
 
  0.00000000E+00  0.00000000E+00  0.00000000E+00
  0.00000000E+00  0.00000000E+00  0.00000000E+00
  0.00000000E+00  0.00000000E+00  0.00000000E+00
  0.00000000E+00  0.00000000E+00  0.00000000E+00
  0.00000000E+00  0.00000000E+00  0.00000000E+00
  0.00000000E+00  0.00000000E+00  0.00000000E+00
  0.00000000E+00  0.00000000E+00  0.00000000E+00
  0.00000000E+00  0.00000000E+00  0.00000000E+00
  0.00000000E+00  0.00000000E+00  0.00000000E+00
  0.00000000E+00  0.00000000E+00  0.00000000E+00
  0.00000000E+00  0.00000000E+00  0.00000000E+00
  0.00000000E+00  0.00000000E+00  0.00000000E+00
  0.00000000E+00  0.00000000E+00  0.00000000E+00
  0.00000000E+00  0.00000000E+00  0.00000000E+00
  0.00000000E+00  0.00000000E+00  0.00000000E+00
  0.00000000E+00  0.00000000E+00  0.00000000E+00
  0.00000000E+00  0.00000000E+00  0.00000000E+00
  0.00000000E+00  0.00000000E+00  0.00000000E+00
  0.00000000E+00  0.00000000E+00  0.00000000E+00
  0.00000000E+00  0.00000000E+00  0.00000000E+00
  0.00000000E+00  0.00000000E+00  0.00000000E+00
  0.00000000E+00  0.00000000E+00  0.00000000E+00
  0.00000000E+00  0.00000000E+00  0.00000000E+00
  0.00000000E+00  0.00000000E+00  0.00000000E+00
  0.00000000E+00  0.00000000E+00  0.00000000E+00
  0.00000000E+00  0.00000000E+00  0.00000000E+00
  0.00000000E+00  0.00000000E+00  0.00000000E+00
  0.00000000E+00  0.00000000E+00  0.00000000E+00
  0.00000000E+00  0.00000000E+00  0.00000000E+00
  0.00000000E+00  0.00000000E+00  0.00000000E+00
  0.00000000E+00  0.00000000E+00  0.00000000E+00
  0.00000000E+00  0.00000000E+00  0.00000000E+00
  0.00000000E+00  0.00000000E+00  0.00000000E+00
  0.00000000E+00  0.00000000E+00  0.00000000E+00
  0.00000000E+00  0.00000000E+00  0.00000000E+00
  0.00000000E+00  0.00000000E+00  0.00000000E+00
  0.00000000E+00  0.00000000E+00  0.00000000E+00
  0.00000000E+00  0.00000000E+00  0.00000000E+00
  0.00000000E+00  0.00000000E+00  0.00000000E+00
  0.00000000E+00  0.00000000E+00  0.00000000E+00
  0.00000000E+00  0.00000000E+00  0.00000000E+00
  0.00000000E+00  0.00000000E+00  0.00000000E+00
  0.00000000E+00  0.00000000E+00  0.00000000E+00
  0.00000000E+00  0.00000000E+00  0.00000000E+00
  0.00000000E+00  0.00000000E+00  0.00000000E+00
  0.00000000E+00  0.00000000E+00  0.00000000E+00
  0.00000000E+00  0.00000000E+00  0.00000000E+00
  0.00000000E+00  0.00000000E+00  0.00000000E+00
