 O  H                                   
   1.00000000000000     
    10.0000000000000000    0.0000000000000000    0.0000000000000000
     0.0000000000000000   10.0000000000000000    0.0000000000000000
     0.0000000000000000    0.0000000000000000   10.0000000000000000
   O    H 
     1     2
Direct
  0.4999999961219879  0.4999999964628020  0.5295100647023979
  0.5000000019371871  0.5761891521812189  0.4703372421709496
  0.5000000019408249  0.4238108513559791  0.4703372431266516
 
  0.00000000E+00  0.00000000E+00  0.00000000E+00
  0.00000000E+00  0.00000000E+00  0.00000000E+00
  0.00000000E+00  0.00000000E+00  0.00000000E+00
