Cu  O  C                                
   1.00000000000000     
    10.2710469276006560    0.0000000000000000    0.0000000000000006
     2.5677617319001635    6.2897060242006209    0.0000000000000005
     0.0000000000000000    0.0000000000000000   30.0000000000000000
   Cu   O    C 
    48     2     2
Selective dynamics
Direct
  0.4791666666666643  0.8333327585702861  0.5617662564797072   F   F   F
  0.7291666666666643  0.8333327585702861  0.5617662564797072   F   F   F
  0.9791666666666643  0.8333327585702861  0.5617662564797072   F   F   F
  0.2291666666666643  0.8333327585702861  0.5617662564797072   F   F   F
  0.5627117401815980  0.4980592184820267  0.6113249216442611   T   T   T
  0.8140225118032731  0.4971889695081373  0.6114485887423697   T   T   T
  0.0638651540724098  0.4973553237865858  0.6121755377320284   T   T   T
  0.3130932895304213  0.4981542076180432  0.6121658846855738   T   T   T
  0.7703227666680945  0.1678757476186092  0.5886596753230648   T   T   T
  0.0210196457753398  0.1679974394829742  0.5887645066510885   T   T   T
  0.2709596526510083  0.1682396617661652  0.5888364391328764   T   T   T
  0.5205727354057288  0.1683065004803765  0.5881970458195056   T   T   T
  0.6042125017412303  0.8349537903932855  0.6368390956374057   T   T   T
  0.8569948495421684  0.8309344283538849  0.6338724923714807   T   T   T
  0.1054370425015350  0.8301543017194248  0.6344624082636869   T   T   T
  0.3529056731192171  0.8305491786185755  0.6340687372826892   T   T   T
  0.8125000000000000  0.4999994252369504  0.4629330613378855   F   F   F
  0.0625000000000000  0.4999994252369504  0.4629330613378855   F   F   F
  0.3125000000000000  0.4999994252369504  0.4629330613378855   F   F   F
  0.5625000000000000  0.4999994252369504  0.4629330613378855   F   F   F
  0.8958333333333357  0.1666660919036147  0.5123496589087893   F   F   F
  0.1458333333333357  0.1666660919036147  0.5123496589087893   F   F   F
  0.3958333333333357  0.1666660919036147  0.5123496589087893   F   F   F
  0.6458333333333357  0.1666660919036147  0.5123496589087893   F   F   F
  0.6041666666666643  0.8333327585702861  0.4876413601233409   F   F   F
  0.8541666666666643  0.8333327585702861  0.4876413601233409   F   F   F
  0.1041666666666643  0.8333327585702861  0.4876413601233409   F   F   F
  0.3541666666666643  0.8333327585702861  0.4876413601233409   F   F   F
  0.6875000000000000  0.4999994252369504  0.5370579576942447   F   F   F
  0.9375000000000000  0.4999994252369504  0.5370579576942447   F   F   F
  0.1875000000000000  0.4999994252369504  0.5370579576942447   F   F   F
  0.4375000000000000  0.4999994252369504  0.5370579576942447   F   F   F
  0.6470425764963821  0.1694507544335409  0.3659180207152843   T   T   T
  0.8946307277518599  0.1697467623957607  0.3655291569030013   T   T   T
  0.1430547153127151  0.1690090818931651  0.3661175945605279   T   T   T
  0.3957707519912574  0.1650876965041164  0.3631467233449470   T   T   T
  0.7290035305078533  0.8317736654051444  0.4111621895715132   T   T   T
  0.9789479448458493  0.8319895273470621  0.4112388018853466   T   T   T
  0.2296862993995532  0.8321025772045019  0.4113426472601702   T   T   T
  0.4794196576683944  0.8317081732311848  0.4117886811775762   T   T   T
  0.6869765262919501  0.5018030966349940  0.3878170378032522   T   T   T
  0.9361648188960459  0.5026262414129263  0.3878051666343012   T   T   T
  0.1860103007795715  0.5027922030682319  0.3885576253488594   T   T   T
  0.4373690895876408  0.5018963439226596  0.3886768991362786   T   T   T
  0.5208333333333357  0.1666660919036147  0.4382247625524229   F   F   F
  0.7708333333333357  0.1666660919036147  0.4382247625524229   F   F   F
  0.0208333333333357  0.1666660919036147  0.4382247625524229   F   F   F
  0.2708333333333357  0.1666660919036147  0.4382247625524229   F   F   F
  0.6043544830915621  0.8326510901371478  0.7376924323745939   T   T   T
  0.3956288171252567  0.1673186350907372  0.2623075676254061   T   T   T
  0.6022622818937933  0.8411523667677869  0.6992896642468125   T   T   T
  0.3977157931694180  0.1588476332322131  0.3007051707148349   T   T   T
 
  0.00000000E+00  0.00000000E+00  0.00000000E+00
  0.00000000E+00  0.00000000E+00  0.00000000E+00
  0.00000000E+00  0.00000000E+00  0.00000000E+00
  0.00000000E+00  0.00000000E+00  0.00000000E+00
  0.00000000E+00  0.00000000E+00  0.00000000E+00
  0.00000000E+00  0.00000000E+00  0.00000000E+00
  0.00000000E+00  0.00000000E+00  0.00000000E+00
  0.00000000E+00  0.00000000E+00  0.00000000E+00
  0.00000000E+00  0.00000000E+00  0.00000000E+00
  0.00000000E+00  0.00000000E+00  0.00000000E+00
  0.00000000E+00  0.00000000E+00  0.00000000E+00
  0.00000000E+00  0.00000000E+00  0.00000000E+00
  0.00000000E+00  0.00000000E+00  0.00000000E+00
  0.00000000E+00  0.00000000E+00  0.00000000E+00
  0.00000000E+00  0.00000000E+00  0.00000000E+00
  0.00000000E+00  0.00000000E+00  0.00000000E+00
  0.00000000E+00  0.00000000E+00  0.00000000E+00
  0.00000000E+00  0.00000000E+00  0.00000000E+00
  0.00000000E+00  0.00000000E+00  0.00000000E+00
  0.00000000E+00  0.00000000E+00  0.00000000E+00
  0.00000000E+00  0.00000000E+00  0.00000000E+00
  0.00000000E+00  0.00000000E+00  0.00000000E+00
  0.00000000E+00  0.00000000E+00  0.00000000E+00
  0.00000000E+00  0.00000000E+00  0.00000000E+00
  0.00000000E+00  0.00000000E+00  0.00000000E+00
  0.00000000E+00  0.00000000E+00  0.00000000E+00
  0.00000000E+00  0.00000000E+00  0.00000000E+00
  0.00000000E+00  0.00000000E+00  0.00000000E+00
  0.00000000E+00  0.00000000E+00  0.00000000E+00
  0.00000000E+00  0.00000000E+00  0.00000000E+00
  0.00000000E+00  0.00000000E+00  0.00000000E+00
  0.00000000E+00  0.00000000E+00  0.00000000E+00
  0.00000000E+00  0.00000000E+00  0.00000000E+00
  0.00000000E+00  0.00000000E+00  0.00000000E+00
  0.00000000E+00  0.00000000E+00  0.00000000E+00
  0.00000000E+00  0.00000000E+00  0.00000000E+00
  0.00000000E+00  0.00000000E+00  0.00000000E+00
  0.00000000E+00  0.00000000E+00  0.00000000E+00
  0.00000000E+00  0.00000000E+00  0.00000000E+00
  0.00000000E+00  0.00000000E+00  0.00000000E+00
  0.00000000E+00  0.00000000E+00  0.00000000E+00
  0.00000000E+00  0.00000000E+00  0.00000000E+00
  0.00000000E+00  0.00000000E+00  0.00000000E+00
  0.00000000E+00  0.00000000E+00  0.00000000E+00
  0.00000000E+00  0.00000000E+00  0.00000000E+00
  0.00000000E+00  0.00000000E+00  0.00000000E+00
  0.00000000E+00  0.00000000E+00  0.00000000E+00
  0.00000000E+00  0.00000000E+00  0.00000000E+00
  0.00000000E+00  0.00000000E+00  0.00000000E+00
  0.00000000E+00  0.00000000E+00  0.00000000E+00
  0.00000000E+00  0.00000000E+00  0.00000000E+00
  0.00000000E+00  0.00000000E+00  0.00000000E+00
