Cu                                      
   1.00000000000000     
    10.2710469276006560    0.0000000000000000    0.0000000000000006
     2.5677617319001635    6.2897060242006209    0.0000000000000005
     0.0000000000000000    0.0000000000000000   30.0000000000000000
   Cu
    48
Selective dynamics
Direct
  0.4934768704689745  0.8300910007527449  0.6053533202436796   F   F   F
  0.7434768704689745  0.8300910007527449  0.6053533202436796   F   F   F
  0.9934768704689745  0.8300910007527449  0.6053533202436796   F   F   F
  0.2434768704689745  0.8300910007527449  0.6053533202436796   F   F   F
  0.5768291090133154  0.4970614786845443  0.6558897578436347   T   T   T
  0.8268292549451640  0.4970614210923359  0.6558898105560380   T   T   T
  0.0768292992130191  0.4970610889555873  0.6558899215660360   T   T   T
  0.3268292942328782  0.4970612906364933  0.6558898817115919   T   T   T
  0.7846076980784953  0.1658958020153886  0.6323729339969484   T   T   T
  0.0346078020157214  0.1658960871484322  0.6323730637865151   T   T   T
  0.2846079685671028  0.1658958598881373  0.6323730156484282   T   T   T
  0.5346079861795444  0.1658957166203519  0.6323729505517074   T   T   T
  0.6192661332708175  0.8270256358713608  0.6779797784221504   T   T   T
  0.8692661981879247  0.8270252311935180  0.6779798457604258   T   T   T
  0.1192663045478156  0.8270250911118936  0.6779799109476962   T   T   T
  0.3692661358666477  0.8270253825019228  0.6779798525117796   T   T   T
  0.8268102038023102  0.4967576674194092  0.5065201251018578   F   F   F
  0.0768102038023102  0.4967576674194092  0.5065201251018578   F   F   F
  0.3268102038023102  0.4967576674194092  0.5065201251018578   F   F   F
  0.5768102038023102  0.4967576674194092  0.5065201251018578   F   F   F
  0.9101435371356459  0.1634243340860735  0.5559367226727616   F   F   F
  0.1601435371356459  0.1634243340860735  0.5559367226727616   F   F   F
  0.4101435371356459  0.1634243340860735  0.5559367226727616   F   F   F
  0.6601435371356459  0.1634243340860735  0.5559367226727616   F   F   F
  0.6184768704689745  0.8300910007527449  0.5312284238873133   F   F   F
  0.8684768704689745  0.8300910007527449  0.5312284238873133   F   F   F
  0.1184768704689745  0.8300910007527449  0.5312284238873133   F   F   F
  0.3684768704689745  0.8300910007527449  0.5312284238873133   F   F   F
  0.7018102038023102  0.4967576674194092  0.5806450214582242   F   F   F
  0.9518102038023102  0.4967576674194092  0.5806450214582242   F   F   F
  0.2018102038023102  0.4967576674194092  0.5806450214582242   F   F   F
  0.4518102038023102  0.4967576674194092  0.5806450214582242   F   F   F
  0.6593577814025585  0.1664660495960625  0.4091860848936928   T   T   T
  0.9093578754064078  0.1664665094594745  0.4091860183114471   T   T   T
  0.1593582978640524  0.1664662230445529  0.4091859824766000   T   T   T
  0.4093582460329839  0.1664659733643377  0.4091860487508581   T   T   T
  0.7440200733896165  0.8275685578774176  0.4547947927088096   T   T   T
  0.9940200839042306  0.8275682372869627  0.4547947275521038   T   T   T
  0.2440203597311565  0.8275684264234137  0.4547947386986773   T   T   T
  0.4940204730418505  0.8275689256017270  0.4547947972424317   T   T   T
  0.7018349915068848  0.4964874442246208  0.4312728831986040   T   T   T
  0.9518346524821598  0.4964875598356885  0.4312727714664815   T   T   T
  0.2018351139955805  0.4964870190803088  0.4312727720913403   T   T   T
  0.4518351774392874  0.4964867376265226  0.4312728746271597   T   T   T
  0.5351435371356459  0.1634243340860735  0.4818118263164024   F   F   F
  0.7851435371356459  0.1634243340860735  0.4818118263164024   F   F   F
  0.0351435371356459  0.1634243340860735  0.4818118263164024   F   F   F
  0.2851435371356459  0.1634243340860735  0.4818118263164024   F   F   F
 
  0.00000000E+00  0.00000000E+00  0.00000000E+00
  0.00000000E+00  0.00000000E+00  0.00000000E+00
  0.00000000E+00  0.00000000E+00  0.00000000E+00
  0.00000000E+00  0.00000000E+00  0.00000000E+00
  0.00000000E+00  0.00000000E+00  0.00000000E+00
  0.00000000E+00  0.00000000E+00  0.00000000E+00
  0.00000000E+00  0.00000000E+00  0.00000000E+00
  0.00000000E+00  0.00000000E+00  0.00000000E+00
  0.00000000E+00  0.00000000E+00  0.00000000E+00
  0.00000000E+00  0.00000000E+00  0.00000000E+00
  0.00000000E+00  0.00000000E+00  0.00000000E+00
  0.00000000E+00  0.00000000E+00  0.00000000E+00
  0.00000000E+00  0.00000000E+00  0.00000000E+00
  0.00000000E+00  0.00000000E+00  0.00000000E+00
  0.00000000E+00  0.00000000E+00  0.00000000E+00
  0.00000000E+00  0.00000000E+00  0.00000000E+00
  0.00000000E+00  0.00000000E+00  0.00000000E+00
  0.00000000E+00  0.00000000E+00  0.00000000E+00
  0.00000000E+00  0.00000000E+00  0.00000000E+00
  0.00000000E+00  0.00000000E+00  0.00000000E+00
  0.00000000E+00  0.00000000E+00  0.00000000E+00
  0.00000000E+00  0.00000000E+00  0.00000000E+00
  0.00000000E+00  0.00000000E+00  0.00000000E+00
  0.00000000E+00  0.00000000E+00  0.00000000E+00
  0.00000000E+00  0.00000000E+00  0.00000000E+00
  0.00000000E+00  0.00000000E+00  0.00000000E+00
  0.00000000E+00  0.00000000E+00  0.00000000E+00
  0.00000000E+00  0.00000000E+00  0.00000000E+00
  0.00000000E+00  0.00000000E+00  0.00000000E+00
  0.00000000E+00  0.00000000E+00  0.00000000E+00
  0.00000000E+00  0.00000000E+00  0.00000000E+00
  0.00000000E+00  0.00000000E+00  0.00000000E+00
  0.00000000E+00  0.00000000E+00  0.00000000E+00
  0.00000000E+00  0.00000000E+00  0.00000000E+00
  0.00000000E+00  0.00000000E+00  0.00000000E+00
  0.00000000E+00  0.00000000E+00  0.00000000E+00
  0.00000000E+00  0.00000000E+00  0.00000000E+00
  0.00000000E+00  0.00000000E+00  0.00000000E+00
  0.00000000E+00  0.00000000E+00  0.00000000E+00
  0.00000000E+00  0.00000000E+00  0.00000000E+00
  0.00000000E+00  0.00000000E+00  0.00000000E+00
  0.00000000E+00  0.00000000E+00  0.00000000E+00
  0.00000000E+00  0.00000000E+00  0.00000000E+00
  0.00000000E+00  0.00000000E+00  0.00000000E+00
  0.00000000E+00  0.00000000E+00  0.00000000E+00
  0.00000000E+00  0.00000000E+00  0.00000000E+00
  0.00000000E+00  0.00000000E+00  0.00000000E+00
  0.00000000E+00  0.00000000E+00  0.00000000E+00
