Cu48 C2 O2                              
   1.00000000000000     
    10.2710469276006560    0.0000000000000000    0.0000000000000006
     2.5677617319001635    6.2897060242006209    0.0000000000000005
     0.0000000000000000    0.0000000000000000   32.6149543968023465
   Cu   O    C 
    48     2     2
Selective dynamics
Direct
  0.4934768704689745  0.8300910007527449  0.5568181818181799   F   F   F
  0.7434768704689745  0.8300910007527449  0.5568181818181799   F   F   F
  0.9934768704689745  0.8300910007527449  0.5568181818181799   F   F   F
  0.2434768704689745  0.8300910007527449  0.5568181818181799   F   F   F
  0.5770670202408466  0.4948931602174182  0.6024170407848639   T   T   T
  0.8282104468876058  0.4940788442504175  0.6025397809755242   T   T   T
  0.0781877807903929  0.4941734961480550  0.6031834192375560   T   T   T
  0.3273851540362343  0.4948667470456218  0.6031765041483981   T   T   T
  0.7846115976706839  0.1646777255716356  0.5815677519870974   T   T   T
  0.0353596434241661  0.1646950367227668  0.5816617444803164   T   T   T
  0.2852573475438875  0.1650077428710871  0.5817344738742593   T   T   T
  0.5349107550718722  0.1649063549135682  0.5811525574030940   T   T   T
  0.6185862278244982  0.8315201620463045  0.6259508474169212   T   T   T
  0.8713406429134222  0.8275212768308379  0.6231360805521037   T   T   T
  0.1198002738628785  0.8266725554625953  0.6236637073590074   T   T   T
  0.3672675415344382  0.8270832719347767  0.6233220463280709   T   T   T
  0.8268102038023102  0.4967576674194092  0.4659090909090935   F   F   F
  0.0768102038023102  0.4967576674194092  0.4659090909090935   F   F   F
  0.3268102038023102  0.4967576674194092  0.4659090909090935   F   F   F
  0.5768102038023102  0.4967576674194092  0.4659090909090935   F   F   F
  0.9101435371356459  0.1634243340860735  0.5113636363636331   F   F   F
  0.1601435371356459  0.1634243340860735  0.5113636363636331   F   F   F
  0.4101435371356459  0.1634243340860735  0.5113636363636331   F   F   F
  0.6601435371356459  0.1634243340860735  0.5113636363636331   F   F   F
  0.6184768704689745  0.8300910007527449  0.4886363636363669   F   F   F
  0.8684768704689745  0.8300910007527449  0.4886363636363669   F   F   F
  0.1184768704689745  0.8300910007527449  0.4886363636363669   F   F   F
  0.3684768704689745  0.8300910007527449  0.4886363636363669   F   F   F
  0.7018102038023102  0.4967576674194092  0.5340909090909065   F   F   F
  0.9518102038023102  0.4967576674194092  0.5340909090909065   F   F   F
  0.2018102038023102  0.4967576674194092  0.5340909090909065   F   F   F
  0.4518102038023102  0.4967576674194092  0.5340909090909065   F   F   F
  0.6613053790879336  0.1664316303787267  0.3766744919092430   T   T   T
  0.9088873318755262  0.1667435486293127  0.3763368561875580   T   T   T
  0.1573292397722935  0.1659406879828449  0.3768630890166769   T   T   T
  0.4100127335597670  0.1620435810982567  0.3740483686852762   T   T   T
  0.7433281178888523  0.8285205183249628  0.4182723584330322   T   T   T
  0.9932290681329623  0.8288089950760357  0.4183498838507015   T   T   T
  0.2440180607792915  0.8288185884718277  0.4184425633512424   T   T   T
  0.4937020539077838  0.8286276181903909  0.4188419987121654   T   T   T
  0.7013103245886015  0.4985960481718253  0.3968165633216053   T   T   T
  0.9504646315307715  0.4993172230723169  0.3968078129370298   T   T   T
  0.2004410867926379  0.4994202931532046  0.3974738570479369   T   T   T
  0.4516290080035083  0.4985847003500627  0.3975927294741238   T   T   T
  0.5351435371356459  0.1634243340860735  0.4431818181818201   F   F   F
  0.7851435371356459  0.1634243340860735  0.4431818181818201   F   F   F
  0.0351435371356459  0.1634243340860735  0.4431818181818201   F   F   F
  0.2851435371356459  0.1634243340860735  0.4431818181818201   F   F   F
  0.6186577020575966  0.8294730295687022  0.7187149064140872   T   T   T
  0.4099458127286877  0.1640117941747022  0.2812888018375366   T   T   T
  0.6165588433940976  0.8379012021599849  0.6831406455916549   T   T   T
  0.4120389259437633  0.1556147984888773  0.3168635081702970   T   T   T
 
  0.00000000E+00  0.00000000E+00  0.00000000E+00
  0.00000000E+00  0.00000000E+00  0.00000000E+00
  0.00000000E+00  0.00000000E+00  0.00000000E+00
  0.00000000E+00  0.00000000E+00  0.00000000E+00
  0.00000000E+00  0.00000000E+00  0.00000000E+00
  0.00000000E+00  0.00000000E+00  0.00000000E+00
  0.00000000E+00  0.00000000E+00  0.00000000E+00
  0.00000000E+00  0.00000000E+00  0.00000000E+00
  0.00000000E+00  0.00000000E+00  0.00000000E+00
  0.00000000E+00  0.00000000E+00  0.00000000E+00
  0.00000000E+00  0.00000000E+00  0.00000000E+00
  0.00000000E+00  0.00000000E+00  0.00000000E+00
  0.00000000E+00  0.00000000E+00  0.00000000E+00
  0.00000000E+00  0.00000000E+00  0.00000000E+00
  0.00000000E+00  0.00000000E+00  0.00000000E+00
  0.00000000E+00  0.00000000E+00  0.00000000E+00
  0.00000000E+00  0.00000000E+00  0.00000000E+00
  0.00000000E+00  0.00000000E+00  0.00000000E+00
  0.00000000E+00  0.00000000E+00  0.00000000E+00
  0.00000000E+00  0.00000000E+00  0.00000000E+00
  0.00000000E+00  0.00000000E+00  0.00000000E+00
  0.00000000E+00  0.00000000E+00  0.00000000E+00
  0.00000000E+00  0.00000000E+00  0.00000000E+00
  0.00000000E+00  0.00000000E+00  0.00000000E+00
  0.00000000E+00  0.00000000E+00  0.00000000E+00
  0.00000000E+00  0.00000000E+00  0.00000000E+00
  0.00000000E+00  0.00000000E+00  0.00000000E+00
  0.00000000E+00  0.00000000E+00  0.00000000E+00
  0.00000000E+00  0.00000000E+00  0.00000000E+00
  0.00000000E+00  0.00000000E+00  0.00000000E+00
  0.00000000E+00  0.00000000E+00  0.00000000E+00
  0.00000000E+00  0.00000000E+00  0.00000000E+00
  0.00000000E+00  0.00000000E+00  0.00000000E+00
  0.00000000E+00  0.00000000E+00  0.00000000E+00
  0.00000000E+00  0.00000000E+00  0.00000000E+00
  0.00000000E+00  0.00000000E+00  0.00000000E+00
  0.00000000E+00  0.00000000E+00  0.00000000E+00
  0.00000000E+00  0.00000000E+00  0.00000000E+00
  0.00000000E+00  0.00000000E+00  0.00000000E+00
  0.00000000E+00  0.00000000E+00  0.00000000E+00
  0.00000000E+00  0.00000000E+00  0.00000000E+00
  0.00000000E+00  0.00000000E+00  0.00000000E+00
  0.00000000E+00  0.00000000E+00  0.00000000E+00
  0.00000000E+00  0.00000000E+00  0.00000000E+00
  0.00000000E+00  0.00000000E+00  0.00000000E+00
  0.00000000E+00  0.00000000E+00  0.00000000E+00
  0.00000000E+00  0.00000000E+00  0.00000000E+00
  0.00000000E+00  0.00000000E+00  0.00000000E+00
  0.00000000E+00  0.00000000E+00  0.00000000E+00
  0.00000000E+00  0.00000000E+00  0.00000000E+00
  0.00000000E+00  0.00000000E+00  0.00000000E+00
  0.00000000E+00  0.00000000E+00  0.00000000E+00
