 H  C  O Cu 
 1.0000000000000000
    10.2710469276006560    0.0000000000000000    0.0000000000000006
     2.5677617319001635    6.2897060242006209    0.0000000000000005
     0.0000000000000000    0.0000000000000000   20.0000000000000000
 H   C   O   Cu 
   2   2   4  48
Selective dynamics
Cartesian
  5.2020545209202282  0.8475925086104708  2.3122470037019944   T   T   T
  7.6367541385805993  5.4421135155901572 17.6877529962980020   T   T   T
  8.4010048669124586  5.2088554603126589 15.9737282206366729   T   T   T
  4.4378037925883707  1.0808505638879686  4.0262717793633263   T   T   T
  5.5771258502904866  0.9963361026510267  3.2982942220394489   T   T   T
  3.2648985003485471  1.0496819190114506  3.5986323859067433   T   T   T
  9.5739101591522804  5.2400241051891765 16.4013676140932532   T   T   T
  7.2616828092103409  5.2933699215496013 16.7017057779605516   T   T   T
  1.9258212989251233  1.0482843373667696  5.9231307003997058   T   T   T
  7.0613447627254544  1.0482843373667696  5.9231307003997067   T   T   T
  9.6291064946256171  1.0482843373667696  5.9231307003997067   T   T   T
  4.4935830308252935  1.0482843373667696  5.9231307003997093   T   T   T
  8.3452256286755429  3.1448530121003180  6.6643796639633983   T   T   T
 10.9129873605756949  3.1448530121003180  6.6643796639633983   T   T   T
  3.2097021648752095  3.1448530121003180  6.6643796639633992   T   T   T
  5.7774638967753749  3.1448530121003180  6.6643796639633983   T   T   T
  4.4935830308252918  3.1448530121003180  8.8881265546544661   F   F   F
  7.0613447627254553  3.1448530121003180  8.8881265546544661   F   F   F
  1.9258212989251224  3.1448530121003180  8.8881265546544661   F   F   F
  9.6291064946256206  3.1448530121003180  8.8881265546544697   F   F   F
  5.7774638967753651  5.2414216868338555  9.6293755182181560   F   F   F
  3.2097021648752047  5.2414216868338555  9.6293755182181560   F   F   F
 10.9129873605756931  5.2414216868338555  9.6293755182181595   F   F   F
  8.3452256286755322  5.2414216868338555  9.6293755182181595   F   F   F
  7.0613447627254553  5.2414216868338555  7.4056286275270864   T   T   T
  9.6291064946256171  5.2414216868338555  7.4056286275270864   T   T   T
  4.4935830308252935  5.2414216868338555  7.4056286275270864   T   T   T
 12.1968682265257762  5.2414216868338555  7.4056286275270899   T   T   T
  3.2097021648752100  1.0482843373667665  8.1468775910907762   F   F   F
  5.7774638967753775  1.0482843373667665  8.1468775910907762   F   F   F
  0.6419404329750402  1.0482843373667665  8.1468775910907780   F   F   F
  8.3452256286755446  1.0482843373667665  8.1468775910907798   F   F   F
  8.3452256286755429  3.1448530121003180 11.1118734453455374   F   F   F
 10.9129873605756949  3.1448530121003180 11.1118734453455374   F   F   F
  3.2097021648752153  3.1448530121003180 11.1118734453455374   F   F   F
  5.7774638967753784  3.1448530121003180 11.1118734453455374   F   F   F
  4.4935830308252918  1.0482843373667687 10.3706244817818476   F   F   F
  1.9258212989251218  1.0482843373667687 10.3706244817818476   F   F   F
  7.0613447627254597  1.0482843373667687 10.3706244817818476   F   F   F
  9.6291064946256206  1.0482843373667687 10.3706244817818476   F   F   F
  7.0613447627254571  5.2414216868338555 11.8531224089092273   F   F   F
  9.6291064946256206  5.2414216868338555 11.8531224089092273   F   F   F
 12.1968682265257780  5.2414216868338555 11.8531224089092255   F   F   F
  4.4935830308252935  5.2414216868338555 11.8531224089092273   F   F   F
  5.7774638967753775  1.0482843373667687 12.5943713724729349   T   T   T
  3.2097021648752131  1.0482843373667687 12.5943713724729349   T   T   T
  0.6419404329750410  1.0482843373667687 12.5943713724729349   T   T   T
  8.3452256286755446  1.0482843373667687 12.5943713724729349   T   T   T
  5.7774638967753695  5.2414216868338555 14.0768692996002969   T   T   T
  3.2097021648752069  5.2414216868338555 14.0768692996002969   T   T   T
 10.9129873605756966  5.2414216868338555 14.0768692996002951   T   T   T
  8.3452256286755340  5.2414216868338555 14.0768692996002969   T   T   T
  1.9258212989251231  3.1448530121003189 13.3356203360366088   T   T   T
  4.4935830308252926  3.1448530121003189 13.3356203360366088   T   T   T
  7.0613447627254535  3.1448530121003189 13.3356203360366070   T   T   T
  9.6291064946256189  3.1448530121003189 13.3356203360366070   T   T   T
