 H  C  O Cu                             
   1.00000000000000     
    10.2710469276006560    0.0000000000000000    0.0000000000000006
     2.5677617319001635    6.2897060242006209    0.0000000000000005
     0.0000000000000000    0.0000000000000000   32.6149543968023465
   H    C    O    Cu
     2     4     4    48
Selective dynamics
Direct
  0.1955192546294668  0.1670564766915277  0.2613069251997047   T   T   T
  0.8330825498367531  0.8264162410039333  0.7386921314578814   T   T   T
  0.8177741932952998  0.8294179846633014  0.6794192476711274   T   T   T
  0.2108227828906095  0.1641069404443485  0.3205790703774625   T   T   T
  0.6725448658505471  0.8284495736742272  0.6828442387824012   T   T   T
  0.3560599609737096  0.1650015274721497  0.3171462936643081   T   T   T
  0.1412302740432665  0.1659637196305965  0.2859416857412995   T   T   T
  0.4167564639112769  0.1569255453214993  0.2841737290681365   T   T   T
  0.6118242421830615  0.8365477637898593  0.7158364365927596   T   T   T
  0.8873487507806317  0.8275865518949104  0.7140566403123287   T   T   T
  0.1498989024182364  0.1623088880344810  0.3753823145141766   T   T   T
  0.4159492666352236  0.1661177629090531  0.3741234522636390   T   T   T
  0.6999855134848971  0.5001642637912767  0.3969971295838164   T   T   T
  0.9496430491838055  0.4992746630015290  0.3976188710414092   T   T   T
  0.6596228747785204  0.1685357771115363  0.3763509195730848   T   T   T
  0.9041169866214531  0.1662886720981120  0.3765823354565114   T   T   T
  0.3268102038023102  0.4967576674194092  0.4659090909090935   F   F   F
  0.0768102038023102  0.4967576674194092  0.4659090909090935   F   F   F
  0.5768102038023102  0.4967576674194092  0.4659090909090935   F   F   F
  0.8268102038023102  0.4967576674194092  0.4659090909090935   F   F   F
  0.3684768704689745  0.8300910007527449  0.4886363636363669   F   F   F
  0.1184768704689745  0.8300910007527449  0.4886363636363669   F   F   F
  0.2009941606586665  0.4969766730818961  0.3970474954981853   T   T   T
  0.4508170451729114  0.4997620541895245  0.3974582792720227   T   T   T
  0.2431835634407875  0.8289590525935111  0.4186862057343106   T   T   T
  0.7428935195845270  0.8298699112865080  0.4186655539752735   T   T   T
  0.9942546048609628  0.8288518938415805  0.4186382402076347   T   T   T
  0.4923787413572995  0.8315351910205351  0.4185190908393679   T   T   T
  0.2851435371356459  0.1634243340860735  0.4431818181818201   F   F   F
  0.5351435371356459  0.1634243340860735  0.4431818181818201   F   F   F
  0.0351435371356459  0.1634243340860735  0.4431818181818201   F   F   F
  0.7851435371356459  0.1634243340860735  0.4431818181818201   F   F   F
  0.7018102038023102  0.4967576674194092  0.5340909090909065   F   F   F
  0.9518102038023102  0.4967576674194092  0.5340909090909065   F   F   F
  0.2018102038023102  0.4967576674194092  0.5340909090909065   F   F   F
  0.4518102038023102  0.4967576674194092  0.5340909090909065   F   F   F
  0.6601435371356459  0.1634243340860735  0.5113636363636331   F   F   F
  0.4101435371356459  0.1634243340860735  0.5113636363636331   F   F   F
  0.1601435371356459  0.1634243340860735  0.5113636363636331   F   F   F
  0.9101435371356459  0.1634243340860735  0.5113636363636331   F   F   F
  0.6184768704689745  0.8300910007527449  0.4886363636363669   F   F   F
  0.8684768704689745  0.8300910007527449  0.4886363636363669   F   F   F
  0.4934768704689745  0.8300910007527449  0.5568181818181799   F   F   F
  0.7434768704689745  0.8300910007527449  0.5568181818181799   F   F   F
  0.5361921095332249  0.1619425138361805  0.5814833268014823   T   T   T
  0.2856768387549167  0.1636281557682224  0.5813491046684760   T   T   T
  0.9934768704689745  0.8300910007527449  0.5568181818181799   F   F   F
  0.2434768704689745  0.8300910007527449  0.5568181818181799   F   F   F
  0.3689999478317105  0.8248835357522779  0.6236507544139656   T   T   T
  0.1244334437938619  0.8272501953798965  0.6234128418657647   T   T   T
  0.8786493548746677  0.8312284448025551  0.6246159362941484   T   T   T
  0.6126944211638161  0.8272834959460198  0.6258778298176040   T   T   T
  0.5778376851958384  0.4936563474907487  0.6025501809182359   T   T   T
  0.8276549601467948  0.4964972477751957  0.6029514976268260   T   T   T
  0.0789290659033739  0.4942681473861370  0.6023892844382175   T   T   T
  0.3285902396627165  0.4933558643449771  0.6029974734433239   T   T   T
  0.7854166856618434  0.1645536419588893  0.5813063364608695   T   T   T
  0.0343726642479822  0.1646655097039442  0.5813641475105129   T   T   T
 
  0.00000000E+00  0.00000000E+00  0.00000000E+00
  0.00000000E+00  0.00000000E+00  0.00000000E+00
  0.00000000E+00  0.00000000E+00  0.00000000E+00
  0.00000000E+00  0.00000000E+00  0.00000000E+00
  0.00000000E+00  0.00000000E+00  0.00000000E+00
  0.00000000E+00  0.00000000E+00  0.00000000E+00
  0.00000000E+00  0.00000000E+00  0.00000000E+00
  0.00000000E+00  0.00000000E+00  0.00000000E+00
  0.00000000E+00  0.00000000E+00  0.00000000E+00
  0.00000000E+00  0.00000000E+00  0.00000000E+00
  0.00000000E+00  0.00000000E+00  0.00000000E+00
  0.00000000E+00  0.00000000E+00  0.00000000E+00
  0.00000000E+00  0.00000000E+00  0.00000000E+00
  0.00000000E+00  0.00000000E+00  0.00000000E+00
  0.00000000E+00  0.00000000E+00  0.00000000E+00
  0.00000000E+00  0.00000000E+00  0.00000000E+00
  0.00000000E+00  0.00000000E+00  0.00000000E+00
  0.00000000E+00  0.00000000E+00  0.00000000E+00
  0.00000000E+00  0.00000000E+00  0.00000000E+00
  0.00000000E+00  0.00000000E+00  0.00000000E+00
  0.00000000E+00  0.00000000E+00  0.00000000E+00
  0.00000000E+00  0.00000000E+00  0.00000000E+00
  0.00000000E+00  0.00000000E+00  0.00000000E+00
  0.00000000E+00  0.00000000E+00  0.00000000E+00
  0.00000000E+00  0.00000000E+00  0.00000000E+00
  0.00000000E+00  0.00000000E+00  0.00000000E+00
  0.00000000E+00  0.00000000E+00  0.00000000E+00
  0.00000000E+00  0.00000000E+00  0.00000000E+00
  0.00000000E+00  0.00000000E+00  0.00000000E+00
  0.00000000E+00  0.00000000E+00  0.00000000E+00
  0.00000000E+00  0.00000000E+00  0.00000000E+00
  0.00000000E+00  0.00000000E+00  0.00000000E+00
  0.00000000E+00  0.00000000E+00  0.00000000E+00
  0.00000000E+00  0.00000000E+00  0.00000000E+00
  0.00000000E+00  0.00000000E+00  0.00000000E+00
  0.00000000E+00  0.00000000E+00  0.00000000E+00
  0.00000000E+00  0.00000000E+00  0.00000000E+00
  0.00000000E+00  0.00000000E+00  0.00000000E+00
  0.00000000E+00  0.00000000E+00  0.00000000E+00
  0.00000000E+00  0.00000000E+00  0.00000000E+00
  0.00000000E+00  0.00000000E+00  0.00000000E+00
  0.00000000E+00  0.00000000E+00  0.00000000E+00
  0.00000000E+00  0.00000000E+00  0.00000000E+00
  0.00000000E+00  0.00000000E+00  0.00000000E+00
  0.00000000E+00  0.00000000E+00  0.00000000E+00
  0.00000000E+00  0.00000000E+00  0.00000000E+00
  0.00000000E+00  0.00000000E+00  0.00000000E+00
  0.00000000E+00  0.00000000E+00  0.00000000E+00
  0.00000000E+00  0.00000000E+00  0.00000000E+00
  0.00000000E+00  0.00000000E+00  0.00000000E+00
  0.00000000E+00  0.00000000E+00  0.00000000E+00
  0.00000000E+00  0.00000000E+00  0.00000000E+00
  0.00000000E+00  0.00000000E+00  0.00000000E+00
  0.00000000E+00  0.00000000E+00  0.00000000E+00
  0.00000000E+00  0.00000000E+00  0.00000000E+00
  0.00000000E+00  0.00000000E+00  0.00000000E+00
  0.00000000E+00  0.00000000E+00  0.00000000E+00
  0.00000000E+00  0.00000000E+00  0.00000000E+00
