Cu                                      
   1.00000000000000     
    10.2710469276006560    0.0000000000000000    0.0000000000000006
     2.5677617319001635    6.2897060242006209    0.0000000000000005
     0.0000000000000000    0.0000000000000000   20.0000000000000000
   Cu
    48
Selective dynamics
Direct
  0.4791813809195062  0.8333333333333357  0.5926542717806100   F   F   F
  0.7291813809195062  0.8333333333333357  0.5926542717806100   F   F   F
  0.9791813809195062  0.8333333333333357  0.5926542717806100   F   F   F
  0.2291813809195062  0.8333333333333357  0.5926542717806100   F   F   F
  0.5628022141014029  0.4992679977484471  0.6681195690664055   T   T   T
  0.8128020421899365  0.4992678066575138  0.6681196303589019   T   T   T
  0.0628023190885401  0.4992679341756698  0.6681196434354035   T   T   T
  0.3128021133297594  0.4992679723948044  0.6681196316722975   T   T   T
  0.7703703774649213  0.1689587833639266  0.6327837476306328   T   T   T
  0.0203703576473231  0.1689586650687218  0.6327837446103004   T   T   T
  0.2703704385929697  0.1689587978274361  0.6327836762119077   T   T   T
  0.5203703044104415  0.1689587278601437  0.6327836758620862   T   T   T
  0.6044329693069201  0.8324881014224630  0.7015307585789827   T   T   T
  0.8544330888576752  0.8324878939361824  0.7015307878962673   T   T   T
  0.1044330259674666  0.8324878844116341  0.7015307334603094   T   T   T
  0.3544329332580958  0.8324880154221859  0.7015306783628859   T   T   T
  0.8125147142528419  0.5000000000000000  0.4444044790678845   F   F   F
  0.0625147142528419  0.5000000000000000  0.4444044790678845   F   F   F
  0.3125147142528419  0.5000000000000000  0.4444044790678845   F   F   F
  0.5625147142528419  0.5000000000000000  0.4444044790678845   F   F   F
  0.8958480475861776  0.1666666666666643  0.5185293754242437   F   F   F
  0.1458480475861776  0.1666666666666643  0.5185293754242437   F   F   F
  0.3958480475861776  0.1666666666666643  0.5185293754242437   F   F   F
  0.6458480475861776  0.1666666666666643  0.5185293754242437   F   F   F
  0.6041813809195062  0.8333333333333357  0.4814669272460677   F   F   F
  0.8541813809195062  0.8333333333333357  0.4814669272460677   F   F   F
  0.1041813809195062  0.8333333333333357  0.4814669272460677   F   F   F
  0.3541813809195062  0.8333333333333357  0.4814669272460677   F   F   F
  0.6875147142528419  0.5000000000000000  0.5555918236024269   F   F   F
  0.9375147142528419  0.5000000000000000  0.5555918236024269   F   F   F
  0.1875147142528419  0.5000000000000000  0.5555918236024269   F   F   F
  0.4375147142528419  0.5000000000000000  0.5555918236024269   F   F   F
  0.6455970683668113  0.1674963527820452  0.2984693198065003   T   T   T
  0.8955970815776695  0.1674962684511527  0.2984692657184738   T   T   T
  0.1455970812792629  0.1674962211804569  0.2984692121037327   T   T   T
  0.3955969392563006  0.1674963406785253  0.2984692921530723   T   T   T
  0.7296296662381607  0.8311095780346278  0.3672096432438039   T   T   T
  0.9796296423526769  0.8311096381661329  0.3672095767827912   T   T   T
  0.2296296897848151  0.8311097536939940  0.3672095714867751   T   T   T
  0.4796295689012240  0.8311097088814208  0.3672095841745460   T   T   T
  0.6872899103325523  0.5006743563688474  0.3318706598133119   T   T   T
  0.9372901281450154  0.5006742282515120  0.3318706856704949   T   T   T
  0.1872898884535488  0.5006741716493437  0.3318706663252158   T   T   T
  0.4372900466240566  0.5006744369589455  0.3318706816361541   T   T   T
  0.5208480475861776  0.1666666666666643  0.4073420308896942   F   F   F
  0.7708480475861776  0.1666666666666643  0.4073420308896942   F   F   F
  0.0208480475861776  0.1666666666666643  0.4073420308896942   F   F   F
  0.2708480475861776  0.1666666666666643  0.4073420308896942   F   F   F
 
  0.00000000E+00  0.00000000E+00  0.00000000E+00
  0.00000000E+00  0.00000000E+00  0.00000000E+00
  0.00000000E+00  0.00000000E+00  0.00000000E+00
  0.00000000E+00  0.00000000E+00  0.00000000E+00
  0.00000000E+00  0.00000000E+00  0.00000000E+00
  0.00000000E+00  0.00000000E+00  0.00000000E+00
  0.00000000E+00  0.00000000E+00  0.00000000E+00
  0.00000000E+00  0.00000000E+00  0.00000000E+00
  0.00000000E+00  0.00000000E+00  0.00000000E+00
  0.00000000E+00  0.00000000E+00  0.00000000E+00
  0.00000000E+00  0.00000000E+00  0.00000000E+00
  0.00000000E+00  0.00000000E+00  0.00000000E+00
  0.00000000E+00  0.00000000E+00  0.00000000E+00
  0.00000000E+00  0.00000000E+00  0.00000000E+00
  0.00000000E+00  0.00000000E+00  0.00000000E+00
  0.00000000E+00  0.00000000E+00  0.00000000E+00
  0.00000000E+00  0.00000000E+00  0.00000000E+00
  0.00000000E+00  0.00000000E+00  0.00000000E+00
  0.00000000E+00  0.00000000E+00  0.00000000E+00
  0.00000000E+00  0.00000000E+00  0.00000000E+00
  0.00000000E+00  0.00000000E+00  0.00000000E+00
  0.00000000E+00  0.00000000E+00  0.00000000E+00
  0.00000000E+00  0.00000000E+00  0.00000000E+00
  0.00000000E+00  0.00000000E+00  0.00000000E+00
  0.00000000E+00  0.00000000E+00  0.00000000E+00
  0.00000000E+00  0.00000000E+00  0.00000000E+00
  0.00000000E+00  0.00000000E+00  0.00000000E+00
  0.00000000E+00  0.00000000E+00  0.00000000E+00
  0.00000000E+00  0.00000000E+00  0.00000000E+00
  0.00000000E+00  0.00000000E+00  0.00000000E+00
  0.00000000E+00  0.00000000E+00  0.00000000E+00
  0.00000000E+00  0.00000000E+00  0.00000000E+00
  0.00000000E+00  0.00000000E+00  0.00000000E+00
  0.00000000E+00  0.00000000E+00  0.00000000E+00
  0.00000000E+00  0.00000000E+00  0.00000000E+00
  0.00000000E+00  0.00000000E+00  0.00000000E+00
  0.00000000E+00  0.00000000E+00  0.00000000E+00
  0.00000000E+00  0.00000000E+00  0.00000000E+00
  0.00000000E+00  0.00000000E+00  0.00000000E+00
  0.00000000E+00  0.00000000E+00  0.00000000E+00
  0.00000000E+00  0.00000000E+00  0.00000000E+00
  0.00000000E+00  0.00000000E+00  0.00000000E+00
  0.00000000E+00  0.00000000E+00  0.00000000E+00
  0.00000000E+00  0.00000000E+00  0.00000000E+00
  0.00000000E+00  0.00000000E+00  0.00000000E+00
  0.00000000E+00  0.00000000E+00  0.00000000E+00
  0.00000000E+00  0.00000000E+00  0.00000000E+00
  0.00000000E+00  0.00000000E+00  0.00000000E+00
