 H Cu                                   
   1.00000000000000     
    10.2710469276006560    0.0000000000000000    0.0000000000000006
     2.5677617319001635    6.2897060242006209    0.0000000000000005
     0.0000000000000000    0.0000000000000000   32.6149543968023465
   H    Cu
     2    48
Selective dynamics
Direct
  0.2313754718101180  0.3116819253662086  0.3522228762223563   T   T   T
  0.7686289228294427  0.6882616257520269  0.6477771237776437   T   T   T
  0.1441434366933478  0.1684994541635021  0.3757129789607134   T   T   T
  0.6437580759877903  0.1698380353538766  0.3767571381978669   T   T   T
  0.6864813982784028  0.5015617623979551  0.3966437008416364   T   T   T
  0.9340845945850305  0.5018791226182060  0.3972717494019378   T   T   T
  0.8945273723423171  0.1675481801213508  0.3767294600245350   T   T   T
  0.3934343916428489  0.1728258679354511  0.3754415271506275   T   T   T
  0.4787294277458187  0.8345184613874679  0.4183356888818892   T   T   T
  0.7288501042964128  0.8325696521377566  0.4185644315481341   T   T   T
  0.2284564470542705  0.8311368169926681  0.4185501606482802   T   T   T
  0.9801905617610203  0.8297889689662483  0.4182764578041045   T   T   T
  0.2708272740316886  0.1666729488154246  0.4431970871167508   F   F   F
  0.5208272740316886  0.1666729488154246  0.4431970871167508   F   F   F
  0.1859101139660595  0.5021938261144072  0.3943960415960461   T   T   T
  0.4377578027430857  0.5034934777383384  0.3975980228952665   T   T   T
  0.3124939406983529  0.5000062821487603  0.4659243598440241   F   F   F
  0.5624939406983529  0.5000062821487603  0.4659243598440241   F   F   F
  0.0624939406983529  0.5000062821487603  0.4659243598440241   F   F   F
  0.8124939406983529  0.5000062821487603  0.4659243598440241   F   F   F
  0.3541606073650172  0.8333396154820960  0.4886516325712904   F   F   F
  0.1041606073650172  0.8333396154820960  0.4886516325712904   F   F   F
  0.8541606073650172  0.8333396154820960  0.4886516325712904   F   F   F
  0.6041606073650172  0.8333396154820960  0.4886516325712904   F   F   F
  0.8958272740316886  0.1666729488154246  0.5113789052985709   F   F   F
  0.6458272740316886  0.1666729488154246  0.5113789052985709   F   F   F
  0.1458272740316886  0.1666729488154246  0.5113789052985709   F   F   F
  0.3958272740316886  0.1666729488154246  0.5113789052985709   F   F   F
  0.4374939406983529  0.5000062821487603  0.5341061780258443   F   F   F
  0.1874939406983529  0.5000062821487603  0.5341061780258443   F   F   F
  0.0208272740316886  0.1666729488154246  0.4431970871167508   F   F   F
  0.7708272740316886  0.1666729488154246  0.4431970871167508   F   F   F
  0.6874939406983529  0.5000062821487603  0.5341061780258443   F   F   F
  0.9374939406983529  0.5000062821487603  0.5341061780258443   F   F   F
  0.4791606073650172  0.8333396154820960  0.5568334507531105   F   F   F
  0.7291606073650172  0.8333396154820960  0.5568334507531105   F   F   F
  0.5212601059469151  0.1654815386125321  0.5816885250934973   T   T   T
  0.2711480174680858  0.1674169479401684  0.5814610868325403   T   T   T
  0.9791606073650172  0.8333396154820960  0.5568334507531176   F   F   F
  0.2291606073650172  0.8333396154820960  0.5568334507531105   F   F   F
  0.8140822380118351  0.4978040092519720  0.6056165065848091   T   T   T
  0.5622340978704585  0.4964918925667874  0.6024313469613674   T   T   T
  0.3135124089035131  0.4984302479717542  0.6033825070552581   T   T   T
  0.0659102281384918  0.4981065880384463  0.6027544196459615   T   T   T
  0.6065425921656171  0.8271787921064586  0.6245812501059689   T   T   T
  0.8558606014790584  0.8314995021239397  0.6243098410269070   T   T   T
  0.0198094382389797  0.1701872747685798  0.5817472430287935   T   T   T
  0.7715321790412162  0.1688535298140721  0.5814738734169183   T   T   T
  0.3562315570291332  0.8301467975311283  0.6232729914568012   T   T   T
  0.1054724984471775  0.8324334453346651  0.6233006507985834   T   T   T
 
  0.00000000E+00  0.00000000E+00  0.00000000E+00
  0.00000000E+00  0.00000000E+00  0.00000000E+00
  0.00000000E+00  0.00000000E+00  0.00000000E+00
  0.00000000E+00  0.00000000E+00  0.00000000E+00
  0.00000000E+00  0.00000000E+00  0.00000000E+00
  0.00000000E+00  0.00000000E+00  0.00000000E+00
  0.00000000E+00  0.00000000E+00  0.00000000E+00
  0.00000000E+00  0.00000000E+00  0.00000000E+00
  0.00000000E+00  0.00000000E+00  0.00000000E+00
  0.00000000E+00  0.00000000E+00  0.00000000E+00
  0.00000000E+00  0.00000000E+00  0.00000000E+00
  0.00000000E+00  0.00000000E+00  0.00000000E+00
  0.00000000E+00  0.00000000E+00  0.00000000E+00
  0.00000000E+00  0.00000000E+00  0.00000000E+00
  0.00000000E+00  0.00000000E+00  0.00000000E+00
  0.00000000E+00  0.00000000E+00  0.00000000E+00
  0.00000000E+00  0.00000000E+00  0.00000000E+00
  0.00000000E+00  0.00000000E+00  0.00000000E+00
  0.00000000E+00  0.00000000E+00  0.00000000E+00
  0.00000000E+00  0.00000000E+00  0.00000000E+00
  0.00000000E+00  0.00000000E+00  0.00000000E+00
  0.00000000E+00  0.00000000E+00  0.00000000E+00
  0.00000000E+00  0.00000000E+00  0.00000000E+00
  0.00000000E+00  0.00000000E+00  0.00000000E+00
  0.00000000E+00  0.00000000E+00  0.00000000E+00
  0.00000000E+00  0.00000000E+00  0.00000000E+00
  0.00000000E+00  0.00000000E+00  0.00000000E+00
  0.00000000E+00  0.00000000E+00  0.00000000E+00
  0.00000000E+00  0.00000000E+00  0.00000000E+00
  0.00000000E+00  0.00000000E+00  0.00000000E+00
  0.00000000E+00  0.00000000E+00  0.00000000E+00
  0.00000000E+00  0.00000000E+00  0.00000000E+00
  0.00000000E+00  0.00000000E+00  0.00000000E+00
  0.00000000E+00  0.00000000E+00  0.00000000E+00
  0.00000000E+00  0.00000000E+00  0.00000000E+00
  0.00000000E+00  0.00000000E+00  0.00000000E+00
  0.00000000E+00  0.00000000E+00  0.00000000E+00
  0.00000000E+00  0.00000000E+00  0.00000000E+00
  0.00000000E+00  0.00000000E+00  0.00000000E+00
  0.00000000E+00  0.00000000E+00  0.00000000E+00
  0.00000000E+00  0.00000000E+00  0.00000000E+00
  0.00000000E+00  0.00000000E+00  0.00000000E+00
  0.00000000E+00  0.00000000E+00  0.00000000E+00
  0.00000000E+00  0.00000000E+00  0.00000000E+00
  0.00000000E+00  0.00000000E+00  0.00000000E+00
  0.00000000E+00  0.00000000E+00  0.00000000E+00
  0.00000000E+00  0.00000000E+00  0.00000000E+00
  0.00000000E+00  0.00000000E+00  0.00000000E+00
  0.00000000E+00  0.00000000E+00  0.00000000E+00
  0.00000000E+00  0.00000000E+00  0.00000000E+00
