 H Cu 
 1.0000000000000000
    10.2710469276006560    0.0000000000000000    0.0000000000000006
     2.5677617319001635    6.2897060242006209    0.0000000000000005
     0.0000000000000000    0.0000000000000000   32.6149543968023465
 H   Cu 
   2  48
Selective dynamics
Cartesian
  3.1767932493377740  1.9603876836102729 11.4877330455026190   T   T   T
  9.6619156004337849  4.3289632937186164 21.1272213512997276   T   T   T
  1.9131704528301046  1.0598120319267132 12.2538616750905263   T   T   T
  7.0481730162953315  1.0682313141036739 12.2879168809932899   T   T   T
  8.3387737563123032  3.1546760384631183 12.9365162147289521   T   T   T
 10.8827327104303073  3.1566721409522325 12.9569999898820676   T   T   T
  9.6179564245163771  1.0538287978531229 12.2870141586321608   T   T   T
  4.4847587494627783  1.0870239026912867 12.2450082866836247   T   T   T
  7.0598969877156437  5.2488757938954116 13.6439994154376603   T   T   T
  9.6238941163158653  5.2366183566174538 13.6514598470658175   T   T   T
  4.4806482012543816  5.2276062447737317 13.6509944023179539   T   T   T
 12.1982836179031153  5.2191286769222147 13.6420675965369043   T   T   T
  3.2096560605648121  1.0483238502356531 14.4548527851084430   F   F   F
  5.7774177924649770  1.0483238502356531 14.4548527851084430   F   F   F
  3.1990055935540744  3.1586515334281486 12.8632089109345067   T   T   T
  5.7890822192954250  3.1668259600765607 12.9676413849878340   T   T   T
  4.4935369265148761  3.1448925249692090 15.1961017486721062   F   F   F
  7.0612986584150406  3.1448925249692090 15.1961017486721062   F   F   F
  1.9257751946147117  3.1448925249692090 15.1961017486721062   F   F   F
  9.6290603903152014  3.1448925249692090 15.1961017486721062   F   F   F
  5.7774177924649406  5.2414611997027629 15.9373507122357694   F   F   F
  3.2096560605647753  5.2414611997027629 15.9373507122357694   F   F   F
 10.9129412562652668  5.2414611997027629 15.9373507122357676   F   F   F
  8.3451795243651024  5.2414611997027629 15.9373507122357694   F   F   F
  9.6290603903152210  1.0483238502356531 16.6785996757995747   F   F   F
  7.0612986584150583  1.0483238502356531 16.6785996757995747   F   F   F
  1.9257751946147299  1.0483238502356531 16.6785996757995747   F   F   F
  4.4935369265148948  1.0483238502356531 16.6785996757995747   F   F   F
  5.7774177924649592  3.1448925249692090 17.4198486393632379   F   F   F
  3.2096560605647935  3.1448925249692090 17.4198486393632379   F   F   F
  0.6418943286646480  1.0483238502356531 14.4548527851084394   F   F   F
  8.3451795243651397  1.0483238502356531 14.4548527851084430   F   F   F
  8.3451795243651201  3.1448925249692090 17.4198486393632379   F   F   F
 10.9129412562652846  3.1448925249692090 17.4198486393632379   F   F   F
  7.0612986584150219  5.2414611997027629 18.1610976029269011   F   F   F
  9.6290603903151837  5.2414611997027629 18.1610976029269011   F   F   F
  5.7788041718520766  1.0408302303052090 18.9717447190676793   T   T   T
  3.2148608439328785  1.0530033860125654 18.9643268305584520   T   T   T
 12.1968221222153481  5.2414611997027629 18.1610976029269047   F   F   F
  4.4935369265148584  5.2414611997027629 18.1610976029269011   F   F   F
  9.6397189544893980  3.1310408758633441 19.7521547442142058   T   T   T
  7.0496056854563562  3.1227880476441081 19.6482709083492395   T   T   T
  4.4999507809965307  3.1349797333117726 19.6792929514354746   T   T   T
  1.9559860813918295  3.1329440074794288 19.6588079092242083   T   T   T
  8.3538254755319414  5.2027114318030003 20.3706889893040675   T   T   T
 10.9256770029237842  5.2298874276287490 20.3618369945674367   T   T   T
  0.6404640411690873  1.0704279273542086 18.9736598018495606   T   T   T
  8.3580188492391887  1.0620390636791017 18.9647438644249142   T   T   T
  5.7904902178984168  5.2213793134024113 20.3280201931220397   T   T   T
  3.2208037264063774  5.2357616558675302 20.3289223012930940   T   T   T
