 H  C  O Cu                             
   1.00000000000000     
    10.2710469276006560    0.0000000000000000    0.0000000000000006
     2.5677617319001635    6.2897060242006209    0.0000000000000005
     0.0000000000000000    0.0000000000000000   30.0000000000000000
   H    C    O    Cu
     4     2     2    48
Selective dynamics
Direct
  0.3269020644223599  0.4027599092728483  0.2767305381796336   T   T   T
  0.4315858262670249  0.9606780675248705  0.2870632234740623   T   T   T
  0.5687085110267578  0.0393076928223014  0.7128374710643068   T   T   T
  0.6725380331828843  0.5973435529167058  0.7233178630042540   T   T   T
  0.6060350997784222  0.8784542401176314  0.6985028449714529   T   T   T
  0.3939856545374554  0.1214456344008086  0.3014510810102237   T   T   T
  0.3595833145290555  0.2579573026032390  0.2657121687045488   T   T   T
  0.6401414205438408  0.7421859049572604  0.7342869146545974   T   T   T
  0.1466767549759653  0.1699953698334019  0.3648774282531093   T   T   T
  0.6448359631381355  0.1713850790850351  0.3651451833100607   T   T   T
  0.8938987618358351  0.1733952372833143  0.3656470999747398   T   T   T
  0.3959600250023508  0.1712338576432766  0.3629180182511416   T   T   T
  0.6873783220438976  0.5013150047475619  0.3876307497872781   T   T   T
  0.9370891192324023  0.5009907468159015  0.3876556688848186   T   T   T
  0.1858520682399408  0.5036753973933271  0.3889450009002641   T   T   T
  0.4375145239770992  0.5031852334691570  0.3892104396801399   T   T   T
  0.3125050230424478  0.4997410779376708  0.4629231309054163   F   F   F
  0.5625050230424478  0.4997410779376708  0.4629231309054163   F   F   F
  0.0625050230424478  0.4997410779376708  0.4629231309054163   F   F   F
  0.8125050230424478  0.4997410779376708  0.4629231309054163   F   F   F
  0.3541716897091121  0.8330744112710065  0.4876314296908717   F   F   F
  0.1041716897091121  0.8330744112710065  0.4876314296908717   F   F   F
  0.8541716897091121  0.8330744112710065  0.4876314296908717   F   F   F
  0.6041716897091121  0.8330744112710065  0.4876314296908717   F   F   F
  0.4801575272308399  0.8321409343899551  0.4118931702633080   T   T   T
  0.7295396972307415  0.8316459430487103  0.4109505074632343   T   T   T
  0.2294265467654997  0.8327770727254432  0.4112757079196880   T   T   T
  0.9787799069268963  0.8326865187195578  0.4109775606590803   T   T   T
  0.2708383563757835  0.1664077446043351  0.4382148321199608   F   F   F
  0.5208383563757835  0.1664077446043351  0.4382148321199608   F   F   F
  0.0208383563757835  0.1664077446043351  0.4382148321199608   F   F   F
  0.7708383563757835  0.1664077446043351  0.4382148321199608   F   F   F
  0.6875050230424478  0.4997410779376708  0.5370480272617897   F   F   F
  0.9375050230424478  0.4997410779376708  0.5370480272617897   F   F   F
  0.1875050230424478  0.4997410779376708  0.5370480272617897   F   F   F
  0.4375050230424478  0.4997410779376708  0.5370480272617897   F   F   F
  0.3958383563757835  0.1664077446043351  0.5123397284763342   F   F   F
  0.1458383563757835  0.1664077446043351  0.5123397284763342   F   F   F
  0.6458383563757835  0.1664077446043351  0.5123397284763342   F   F   F
  0.8958383563757835  0.1664077446043351  0.5123397284763342   F   F   F
  0.4791716897091121  0.8330744112710065  0.5617563260472451   F   F   F
  0.7291716897091121  0.8330744112710065  0.5617563260472451   F   F   F
  0.9791716897091121  0.8330744112710065  0.5617563260472451   F   F   F
  0.2291716897091121  0.8330744112710065  0.5617563260472451   F   F   F
  0.5198432656953778  0.1673645602944882  0.5880740797897567   T   T   T
  0.2704690148299848  0.1678763796784749  0.5890193419053280   T   T   T
  0.0212377150712891  0.1668296081862583  0.5889897422253143   T   T   T
  0.7705888703283068  0.1667114085600826  0.5886939936039435   T   T   T
  0.3551571553963725  0.8281319888640370  0.6348249284767130   T   T   T
  0.1060915519901809  0.8261368905132351  0.6343229494962596   T   T   T
  0.8533115524779805  0.8295131513588965  0.6351039280118699   T   T   T
  0.6040187257281496  0.8282704013415109  0.6370533468190304   T   T   T
  0.0629126528071549  0.4985426504497835  0.6123180570724495   T   T   T
  0.3126197657544179  0.4982132838610226  0.6123436867474961   T   T   T
  0.5624905917886469  0.4963107566137934  0.6107633626296838   T   T   T
  0.8141471136426017  0.4958335671414913  0.6110285623877711   T   T   T
 
  0.00000000E+00  0.00000000E+00  0.00000000E+00
  0.00000000E+00  0.00000000E+00  0.00000000E+00
  0.00000000E+00  0.00000000E+00  0.00000000E+00
  0.00000000E+00  0.00000000E+00  0.00000000E+00
  0.00000000E+00  0.00000000E+00  0.00000000E+00
  0.00000000E+00  0.00000000E+00  0.00000000E+00
  0.00000000E+00  0.00000000E+00  0.00000000E+00
  0.00000000E+00  0.00000000E+00  0.00000000E+00
  0.00000000E+00  0.00000000E+00  0.00000000E+00
  0.00000000E+00  0.00000000E+00  0.00000000E+00
  0.00000000E+00  0.00000000E+00  0.00000000E+00
  0.00000000E+00  0.00000000E+00  0.00000000E+00
  0.00000000E+00  0.00000000E+00  0.00000000E+00
  0.00000000E+00  0.00000000E+00  0.00000000E+00
  0.00000000E+00  0.00000000E+00  0.00000000E+00
  0.00000000E+00  0.00000000E+00  0.00000000E+00
  0.00000000E+00  0.00000000E+00  0.00000000E+00
  0.00000000E+00  0.00000000E+00  0.00000000E+00
  0.00000000E+00  0.00000000E+00  0.00000000E+00
  0.00000000E+00  0.00000000E+00  0.00000000E+00
  0.00000000E+00  0.00000000E+00  0.00000000E+00
  0.00000000E+00  0.00000000E+00  0.00000000E+00
  0.00000000E+00  0.00000000E+00  0.00000000E+00
  0.00000000E+00  0.00000000E+00  0.00000000E+00
  0.00000000E+00  0.00000000E+00  0.00000000E+00
  0.00000000E+00  0.00000000E+00  0.00000000E+00
  0.00000000E+00  0.00000000E+00  0.00000000E+00
  0.00000000E+00  0.00000000E+00  0.00000000E+00
  0.00000000E+00  0.00000000E+00  0.00000000E+00
  0.00000000E+00  0.00000000E+00  0.00000000E+00
  0.00000000E+00  0.00000000E+00  0.00000000E+00
  0.00000000E+00  0.00000000E+00  0.00000000E+00
  0.00000000E+00  0.00000000E+00  0.00000000E+00
  0.00000000E+00  0.00000000E+00  0.00000000E+00
  0.00000000E+00  0.00000000E+00  0.00000000E+00
  0.00000000E+00  0.00000000E+00  0.00000000E+00
  0.00000000E+00  0.00000000E+00  0.00000000E+00
  0.00000000E+00  0.00000000E+00  0.00000000E+00
  0.00000000E+00  0.00000000E+00  0.00000000E+00
  0.00000000E+00  0.00000000E+00  0.00000000E+00
  0.00000000E+00  0.00000000E+00  0.00000000E+00
  0.00000000E+00  0.00000000E+00  0.00000000E+00
  0.00000000E+00  0.00000000E+00  0.00000000E+00
  0.00000000E+00  0.00000000E+00  0.00000000E+00
  0.00000000E+00  0.00000000E+00  0.00000000E+00
  0.00000000E+00  0.00000000E+00  0.00000000E+00
  0.00000000E+00  0.00000000E+00  0.00000000E+00
  0.00000000E+00  0.00000000E+00  0.00000000E+00
  0.00000000E+00  0.00000000E+00  0.00000000E+00
  0.00000000E+00  0.00000000E+00  0.00000000E+00
  0.00000000E+00  0.00000000E+00  0.00000000E+00
  0.00000000E+00  0.00000000E+00  0.00000000E+00
  0.00000000E+00  0.00000000E+00  0.00000000E+00
  0.00000000E+00  0.00000000E+00  0.00000000E+00
  0.00000000E+00  0.00000000E+00  0.00000000E+00
  0.00000000E+00  0.00000000E+00  0.00000000E+00
