Cu                                      
   1.00000000000000     
    10.2710469276006560    0.0000000000000000    0.0000000000000006
    -0.0000000000000006   10.2710469276006560    0.0000000000000006
     0.0000000000000000    0.0000000000000000   20.0000000000000000
   Cu
    64
Selective dynamics
Direct
  0.0625000000000000  0.0625000000000000  0.1348010831861970   F   F   F
  0.0625000000000000  0.3125000000000000  0.1348010831861970   F   F   F
  0.0625000000000000  0.5625000000000000  0.1348010831861970   F   F   F
  0.0625000000000000  0.8125000000000000  0.1348010831861970   F   F   F
  0.3125000000000000  0.0625000000000000  0.1348010831861970   F   F   F
  0.3125000000000000  0.3125000000000000  0.1348010831861970   F   F   F
  0.3125000000000000  0.5625000000000000  0.1348010831861970   F   F   F
  0.3125000000000000  0.8125000000000000  0.1348010831861970   F   F   F
  0.5625000000000000  0.0625000000000000  0.1348010831861970   F   F   F
  0.5625000000000000  0.3125000000000000  0.1348010831861970   F   F   F
  0.5625000000000000  0.5625000000000000  0.1348010831861970   F   F   F
  0.5625000000000000  0.8125000000000000  0.1348010831861970   F   F   F
  0.8125000000000000  0.0625000000000000  0.1348010831861970   F   F   F
  0.8125000000000000  0.3125000000000000  0.1348010831861970   F   F   F
  0.8125000000000000  0.5625000000000000  0.1348010831861970   F   F   F
  0.8125000000000000  0.8125000000000000  0.1348010831861970   F   F   F
  0.1875000000000000  0.1875000000000000  0.2255851698410964   T   T   T
  0.1875000000000000  0.4375000000000000  0.2255851698410964   T   T   T
  0.1875000000000000  0.6875000000000000  0.2255851698410964   T   T   T
  0.1875000000000000  0.9375000000000000  0.2255851698410964   T   T   T
  0.4375000000000000  0.1875000000000000  0.2255851698410964   T   T   T
  0.4375000000000000  0.4375000000000000  0.2255851698410964   T   T   T
  0.4375000000000000  0.6875000000000000  0.2255851698410964   T   T   T
  0.4375000000000000  0.9375000000000000  0.2255851698410964   T   T   T
  0.6875000000000000  0.1875000000000000  0.2255851698410964   T   T   T
  0.6875000000000000  0.4375000000000000  0.2255851698410964   T   T   T
  0.6875000000000000  0.6875000000000000  0.2255851698410964   T   T   T
  0.6875000000000000  0.9375000000000000  0.2255851698410964   T   T   T
  0.9375000000000000  0.1875000000000000  0.2255851698410964   T   T   T
  0.9375000000000000  0.4375000000000000  0.2255851698410964   T   T   T
  0.9375000000000000  0.6875000000000000  0.2255851698410964   T   T   T
  0.9375000000000000  0.9375000000000000  0.2255851698410964   T   T   T
  0.0625000000000000  0.0625000000000000  0.9532329098764052   T   T   T
  0.0625000000000000  0.3125000000000000  0.9532329098764052   T   T   T
  0.0625000000000000  0.5625000000000000  0.9532329098764052   T   T   T
  0.0625000000000000  0.8125000000000000  0.9532329098764052   T   T   T
  0.3125000000000000  0.0625000000000000  0.9532329098764052   T   T   T
  0.3125000000000000  0.3125000000000000  0.9532329098764052   T   T   T
  0.3125000000000000  0.5625000000000000  0.9532329098764052   T   T   T
  0.3125000000000000  0.8125000000000000  0.9532329098764052   T   T   T
  0.5625000000000000  0.0625000000000000  0.9532329098764052   T   T   T
  0.5625000000000000  0.3125000000000000  0.9532329098764052   T   T   T
  0.5625000000000000  0.5625000000000000  0.9532329098764052   T   T   T
  0.5625000000000000  0.8125000000000000  0.9532329098764052   T   T   T
  0.8125000000000000  0.0625000000000000  0.9532329098764052   T   T   T
  0.8125000000000000  0.3125000000000000  0.9532329098764052   T   T   T
  0.8125000000000000  0.5625000000000000  0.9532329098764052   T   T   T
  0.8125000000000000  0.8125000000000000  0.9532329098764052   T   T   T
  0.1875000000000000  0.1875000000000000  0.0440169965313046   F   F   F
  0.1875000000000000  0.4375000000000000  0.0440169965313046   F   F   F
  0.1875000000000000  0.6875000000000000  0.0440169965313046   F   F   F
  0.1875000000000000  0.9375000000000000  0.0440169965313046   F   F   F
  0.4375000000000000  0.1875000000000000  0.0440169965313046   F   F   F
  0.4375000000000000  0.4375000000000000  0.0440169965313046   F   F   F
  0.4375000000000000  0.6875000000000000  0.0440169965313046   F   F   F
  0.4375000000000000  0.9375000000000000  0.0440169965313046   F   F   F
  0.6875000000000000  0.1875000000000000  0.0440169965313046   F   F   F
  0.6875000000000000  0.4375000000000000  0.0440169965313046   F   F   F
  0.6875000000000000  0.6875000000000000  0.0440169965313046   F   F   F
  0.6875000000000000  0.9375000000000000  0.0440169965313046   F   F   F
  0.9375000000000000  0.1875000000000000  0.0440169965313046   F   F   F
  0.9375000000000000  0.4375000000000000  0.0440169965313046   F   F   F
  0.9375000000000000  0.6875000000000000  0.0440169965313046   F   F   F
  0.9375000000000000  0.9375000000000000  0.0440169965313046   F   F   F
 
  0.00000000E+00  0.00000000E+00  0.00000000E+00
  0.00000000E+00  0.00000000E+00  0.00000000E+00
  0.00000000E+00  0.00000000E+00  0.00000000E+00
  0.00000000E+00  0.00000000E+00  0.00000000E+00
  0.00000000E+00  0.00000000E+00  0.00000000E+00
  0.00000000E+00  0.00000000E+00  0.00000000E+00
  0.00000000E+00  0.00000000E+00  0.00000000E+00
  0.00000000E+00  0.00000000E+00  0.00000000E+00
  0.00000000E+00  0.00000000E+00  0.00000000E+00
  0.00000000E+00  0.00000000E+00  0.00000000E+00
  0.00000000E+00  0.00000000E+00  0.00000000E+00
  0.00000000E+00  0.00000000E+00  0.00000000E+00
  0.00000000E+00  0.00000000E+00  0.00000000E+00
  0.00000000E+00  0.00000000E+00  0.00000000E+00
  0.00000000E+00  0.00000000E+00  0.00000000E+00
  0.00000000E+00  0.00000000E+00  0.00000000E+00
  0.00000000E+00  0.00000000E+00  0.00000000E+00
  0.00000000E+00  0.00000000E+00  0.00000000E+00
  0.00000000E+00  0.00000000E+00  0.00000000E+00
  0.00000000E+00  0.00000000E+00  0.00000000E+00
  0.00000000E+00  0.00000000E+00  0.00000000E+00
  0.00000000E+00  0.00000000E+00  0.00000000E+00
  0.00000000E+00  0.00000000E+00  0.00000000E+00
  0.00000000E+00  0.00000000E+00  0.00000000E+00
  0.00000000E+00  0.00000000E+00  0.00000000E+00
  0.00000000E+00  0.00000000E+00  0.00000000E+00
  0.00000000E+00  0.00000000E+00  0.00000000E+00
  0.00000000E+00  0.00000000E+00  0.00000000E+00
  0.00000000E+00  0.00000000E+00  0.00000000E+00
  0.00000000E+00  0.00000000E+00  0.00000000E+00
  0.00000000E+00  0.00000000E+00  0.00000000E+00
  0.00000000E+00  0.00000000E+00  0.00000000E+00
  0.00000000E+00  0.00000000E+00  0.00000000E+00
  0.00000000E+00  0.00000000E+00  0.00000000E+00
  0.00000000E+00  0.00000000E+00  0.00000000E+00
  0.00000000E+00  0.00000000E+00  0.00000000E+00
  0.00000000E+00  0.00000000E+00  0.00000000E+00
  0.00000000E+00  0.00000000E+00  0.00000000E+00
  0.00000000E+00  0.00000000E+00  0.00000000E+00
  0.00000000E+00  0.00000000E+00  0.00000000E+00
  0.00000000E+00  0.00000000E+00  0.00000000E+00
  0.00000000E+00  0.00000000E+00  0.00000000E+00
  0.00000000E+00  0.00000000E+00  0.00000000E+00
  0.00000000E+00  0.00000000E+00  0.00000000E+00
  0.00000000E+00  0.00000000E+00  0.00000000E+00
  0.00000000E+00  0.00000000E+00  0.00000000E+00
  0.00000000E+00  0.00000000E+00  0.00000000E+00
  0.00000000E+00  0.00000000E+00  0.00000000E+00
  0.00000000E+00  0.00000000E+00  0.00000000E+00
  0.00000000E+00  0.00000000E+00  0.00000000E+00
  0.00000000E+00  0.00000000E+00  0.00000000E+00
  0.00000000E+00  0.00000000E+00  0.00000000E+00
  0.00000000E+00  0.00000000E+00  0.00000000E+00
  0.00000000E+00  0.00000000E+00  0.00000000E+00
  0.00000000E+00  0.00000000E+00  0.00000000E+00
  0.00000000E+00  0.00000000E+00  0.00000000E+00
  0.00000000E+00  0.00000000E+00  0.00000000E+00
  0.00000000E+00  0.00000000E+00  0.00000000E+00
  0.00000000E+00  0.00000000E+00  0.00000000E+00
  0.00000000E+00  0.00000000E+00  0.00000000E+00
  0.00000000E+00  0.00000000E+00  0.00000000E+00
  0.00000000E+00  0.00000000E+00  0.00000000E+00
  0.00000000E+00  0.00000000E+00  0.00000000E+00
  0.00000000E+00  0.00000000E+00  0.00000000E+00
