 H  C  O Cu                             
   1.00000000000000     
    10.2710469276006560    0.0000000000000000    0.0000000000000006
     2.5677617319001635    6.2897060242006209    0.0000000000000005
     0.0000000000000000    0.0000000000000000   30.0000000000000000
   H    C    O    Cu
     2     2     2    48
Selective dynamics
Direct
  0.4391184460992568 -0.0100961331193319  0.2823290999618785   T   T   T
  0.5608797293749757  0.0100785949642696  0.7176550258193301   T   T   T
  0.6065993107393763  0.8423812107239033  0.7042916599872379   T   T   T
  0.3933965386440615  0.1576105216412909  0.2956912877986496   T   T   T
  0.3550044973509247  0.3002514556218273  0.2673223580057220   T   T   T
  0.6449736446572679  0.6997714167025801  0.7326647082250786   T   T   T
  0.1435265462126147  0.1726185608045609  0.3657608320996445   T   T   T
  0.6443832602751393  0.1747402064161715  0.3656028319407440   T   T   T
  0.4783242970047264  0.8361852034284697  0.4111682959535786   T   T   T
  0.7288616183562691  0.8333981242146277  0.4112029481075868   T   T   T
  0.8928147836771665  0.1755176049937285  0.3655707076240179   T   T   T
  0.3925889666035112  0.1761447894773257  0.3608416659079570   T   T   T
  0.6861095986485166  0.5042191448187169  0.3879173716602439   T   T   T
  0.9359561171117823  0.5035162181720235  0.3879165795168799   T   T   T
  0.1852620955502016  0.5049078123049738  0.3889254687023219   T   T   T
  0.4367278233944804  0.5052816508269589  0.3890312890493751   T   T   T
  0.3125013520641673  0.4999969479653643  0.4629303028390979   F   F   F
  0.5625013520641673  0.4999969479653643  0.4629303028390979   F   F   F
  0.0625013520641673  0.4999969479653643  0.4629303028390979   F   F   F
  0.8125013520641673  0.4999969479653643  0.4629303028390979   F   F   F
  0.3541680187308316  0.8333302812987000  0.4876386016245533   F   F   F
  0.1041680187308316  0.8333302812987000  0.4876386016245533   F   F   F
  0.8541680187308316  0.8333302812987000  0.4876386016245533   F   F   F
  0.6041680187308316  0.8333302812987000  0.4876386016245533   F   F   F
  0.8958346853975030  0.1666636146320286  0.5123469004100087   F   F   F
  0.6458346853975030  0.1666636146320286  0.5123469004100087   F   F   F
  0.2286780287900751  0.8338771228191761  0.4113047524562046   T   T   T
  0.9787886357204408  0.8338232066817215  0.4109719227563625   T   T   T
  0.2708346853975030  0.1666636146320286  0.4382220040536424   F   F   F
  0.5208346853975030  0.1666636146320286  0.4382220040536424   F   F   F
  0.0208346853975030  0.1666636146320286  0.4382220040536424   F   F   F
  0.7708346853975030  0.1666636146320286  0.4382220040536424   F   F   F
  0.6875013520641673  0.4999969479653643  0.5370551991954642   F   F   F
  0.9375013520641673  0.4999969479653643  0.5370551991954642   F   F   F
  0.1875013520641673  0.4999969479653643  0.5370551991954642   F   F   F
  0.4375013520641673  0.4999969479653643  0.5370551991954642   F   F   F
  0.3958346853975030  0.1666636146320286  0.5123469004100087   F   F   F
  0.1458346853975030  0.1666636146320286  0.5123469004100087   F   F   F
  0.4791680187308316  0.8333302812987000  0.5617634979809196   F   F   F
  0.7291680187308316  0.8333302812987000  0.5617634979809196   F   F   F
  0.8147378952598752  0.4950898144400886  0.6110545865481949   T   T   T
  0.5632770944423049  0.4947121220606533  0.6109488278684008   T   T   T
  0.9791680187308316  0.8333302812987000  0.5617634979809196   F   F   F
  0.2291680187308316  0.8333302812987000  0.5617634979809196   F   F   F
  0.5216812725989525  0.1637988543549769  0.5888151403524431   T   T   T
  0.2711412469474975  0.1665961303770943  0.5887754397960679   T   T   T
  0.0212133230023360  0.1661711560538419  0.5890078908663401   T   T   T
  0.7713236997437977  0.1661170818862760  0.5886744659081308   T   T   T
  0.3556232711481948  0.8252564986368548  0.6343773885478518   T   T   T
  0.1071884639816952  0.8244766692572695  0.6344092607545114   T   T   T
  0.8564752186674113  0.8273788661763209  0.6342187788661875   T   T   T
  0.6074139636375282  0.8238446333120474  0.6391379275269389   T   T   T
  0.0640459028713241  0.4964768878357532  0.6120623977708316   T   T   T
  0.3138958526532451  0.4957720566267405  0.6120618382326856   T   T   T
 
  0.00000000E+00  0.00000000E+00  0.00000000E+00
  0.00000000E+00  0.00000000E+00  0.00000000E+00
  0.00000000E+00  0.00000000E+00  0.00000000E+00
  0.00000000E+00  0.00000000E+00  0.00000000E+00
  0.00000000E+00  0.00000000E+00  0.00000000E+00
  0.00000000E+00  0.00000000E+00  0.00000000E+00
  0.00000000E+00  0.00000000E+00  0.00000000E+00
  0.00000000E+00  0.00000000E+00  0.00000000E+00
  0.00000000E+00  0.00000000E+00  0.00000000E+00
  0.00000000E+00  0.00000000E+00  0.00000000E+00
  0.00000000E+00  0.00000000E+00  0.00000000E+00
  0.00000000E+00  0.00000000E+00  0.00000000E+00
  0.00000000E+00  0.00000000E+00  0.00000000E+00
  0.00000000E+00  0.00000000E+00  0.00000000E+00
  0.00000000E+00  0.00000000E+00  0.00000000E+00
  0.00000000E+00  0.00000000E+00  0.00000000E+00
  0.00000000E+00  0.00000000E+00  0.00000000E+00
  0.00000000E+00  0.00000000E+00  0.00000000E+00
  0.00000000E+00  0.00000000E+00  0.00000000E+00
  0.00000000E+00  0.00000000E+00  0.00000000E+00
  0.00000000E+00  0.00000000E+00  0.00000000E+00
  0.00000000E+00  0.00000000E+00  0.00000000E+00
  0.00000000E+00  0.00000000E+00  0.00000000E+00
  0.00000000E+00  0.00000000E+00  0.00000000E+00
  0.00000000E+00  0.00000000E+00  0.00000000E+00
  0.00000000E+00  0.00000000E+00  0.00000000E+00
  0.00000000E+00  0.00000000E+00  0.00000000E+00
  0.00000000E+00  0.00000000E+00  0.00000000E+00
  0.00000000E+00  0.00000000E+00  0.00000000E+00
  0.00000000E+00  0.00000000E+00  0.00000000E+00
  0.00000000E+00  0.00000000E+00  0.00000000E+00
  0.00000000E+00  0.00000000E+00  0.00000000E+00
  0.00000000E+00  0.00000000E+00  0.00000000E+00
  0.00000000E+00  0.00000000E+00  0.00000000E+00
  0.00000000E+00  0.00000000E+00  0.00000000E+00
  0.00000000E+00  0.00000000E+00  0.00000000E+00
  0.00000000E+00  0.00000000E+00  0.00000000E+00
  0.00000000E+00  0.00000000E+00  0.00000000E+00
  0.00000000E+00  0.00000000E+00  0.00000000E+00
  0.00000000E+00  0.00000000E+00  0.00000000E+00
  0.00000000E+00  0.00000000E+00  0.00000000E+00
  0.00000000E+00  0.00000000E+00  0.00000000E+00
  0.00000000E+00  0.00000000E+00  0.00000000E+00
  0.00000000E+00  0.00000000E+00  0.00000000E+00
  0.00000000E+00  0.00000000E+00  0.00000000E+00
  0.00000000E+00  0.00000000E+00  0.00000000E+00
  0.00000000E+00  0.00000000E+00  0.00000000E+00
  0.00000000E+00  0.00000000E+00  0.00000000E+00
  0.00000000E+00  0.00000000E+00  0.00000000E+00
  0.00000000E+00  0.00000000E+00  0.00000000E+00
  0.00000000E+00  0.00000000E+00  0.00000000E+00
  0.00000000E+00  0.00000000E+00  0.00000000E+00
  0.00000000E+00  0.00000000E+00  0.00000000E+00
  0.00000000E+00  0.00000000E+00  0.00000000E+00
