Cu  O  C                                
   1.00000000000000     
    10.2710469276006560    0.0000000000000000    0.0000000000000006
     2.5677617319001635    6.2897060242006209    0.0000000000000005
     0.0000000000000000    0.0000000000000000   30.0000000000000000
   Cu   O    C 
    48     2     2
Selective dynamics
Direct
  0.4791666666666643  0.8333327585702861  0.5617662564797072   F   F   F
  0.7291666666666643  0.8333327585702861  0.5617662564797072   F   F   F
  0.9791666666666643  0.8333327585702861  0.5617662564797072   F   F   F
  0.2291666666666643  0.8333327585702861  0.5617662564797072   F   F   F
  0.5627958065746713  0.4986392480414378  0.6113520409418344   T   T   T
  0.8134586075935638  0.4978658906137072  0.6115979707496291   T   T   T
  0.0640285464011947  0.4975825827197946  0.6122842185671961   T   T   T
  0.3128850228870055  0.4981611540220846  0.6122715555483892   T   T   T
  0.7702788468421291  0.1680644832956799  0.5887048062930398   T   T   T
  0.0211515147357859  0.1677843595945647  0.5888236905394940   T   T   T
  0.2710000133589365  0.1681775062949669  0.5890009292748208   T   T   T
  0.5206035478640818  0.1675543033373029  0.5884813558432799   T   T   T
  0.6046199243542952  0.8333517046044076  0.6370628561820232   T   T   T
  0.8570215456279274  0.8296343514311120  0.6338875691652629   T   T   T
  0.1060933782311686  0.8280286429484818  0.6343952553959342   T   T   T
  0.3534458980091907  0.8289057278425401  0.6341907046371305   T   T   T
  0.8125000000000000  0.4999994252369504  0.4629330613378855   F   F   F
  0.0625000000000000  0.4999994252369504  0.4629330613378855   F   F   F
  0.3125000000000000  0.4999994252369504  0.4629330613378855   F   F   F
  0.5625000000000000  0.4999994252369504  0.4629330613378855   F   F   F
  0.8958333333333357  0.1666660919036147  0.5123496589087893   F   F   F
  0.1458333333333357  0.1666660919036147  0.5123496589087893   F   F   F
  0.3958333333333357  0.1666660919036147  0.5123496589087893   F   F   F
  0.6458333333333357  0.1666660919036147  0.5123496589087893   F   F   F
  0.6041666666666643  0.8333327585702861  0.4876413601233409   F   F   F
  0.8541666666666643  0.8333327585702861  0.4876413601233409   F   F   F
  0.1041666666666643  0.8333327585702861  0.4876413601233409   F   F   F
  0.3541666666666643  0.8333327585702861  0.4876413601233409   F   F   F
  0.6875000000000000  0.4999994252369504  0.5370579576942447   F   F   F
  0.9375000000000000  0.4999994252369504  0.5370579576942447   F   F   F
  0.1875000000000000  0.4999994252369504  0.5370579576942447   F   F   F
  0.4375000000000000  0.4999994252369504  0.5370579576942447   F   F   F
  0.6465764995481085  0.1710714328881264  0.3657989096923658   T   T   T
  0.8939303071658778  0.1719098510313356  0.3655959078047331   T   T   T
  0.1430016666345225  0.1703339085020117  0.3661042214071706   T   T   T
  0.3953804171085261  0.1666696248298677  0.3629304491387756   T   T   T
  0.7290057045660828  0.8318030450142849  0.4109898506053421   T   T   T
  0.9788513772316305  0.8321887275991279  0.4111731826746552   T   T   T
  0.2297234125634875  0.8319217449815570  0.4112896560569066   T   T   T
  0.4794056195936981  0.8324347518255708  0.4115060011345346   T   T   T
  0.6871460808484103  0.5018073948208814  0.3877162896795520   T   T   T
  0.9359909027332387  0.5023947031312787  0.3877036589883912   T   T   T
  0.1865522415217845  0.5021342812202148  0.3883974764050799   T   T   T
  0.4372201764428688  0.5013658814706058  0.3886416984950261   T   T   T
  0.5208333333333357  0.1666660919036147  0.4382247625524229   F   F   F
  0.7708333333333357  0.1666660919036147  0.4382247625524229   F   F   F
  0.0208333333333357  0.1666660919036147  0.4382247625524229   F   F   F
  0.2708333333333357  0.1666660919036147  0.4382247625524229   F   F   F
  0.6043208836962417  0.8327587246548512  0.7376701981234540   T   T   T
  0.3956601130350393  0.1672094316300457  0.2623203270606396   T   T   T
  0.6022319059443264  0.8415012289389687  0.6986514793088560   T   T   T
  0.3977490578796381  0.1585039561757142  0.3013430414949902   T   T   T
 
  0.00000000E+00  0.00000000E+00  0.00000000E+00
  0.00000000E+00  0.00000000E+00  0.00000000E+00
  0.00000000E+00  0.00000000E+00  0.00000000E+00
  0.00000000E+00  0.00000000E+00  0.00000000E+00
  0.00000000E+00  0.00000000E+00  0.00000000E+00
  0.00000000E+00  0.00000000E+00  0.00000000E+00
  0.00000000E+00  0.00000000E+00  0.00000000E+00
  0.00000000E+00  0.00000000E+00  0.00000000E+00
  0.00000000E+00  0.00000000E+00  0.00000000E+00
  0.00000000E+00  0.00000000E+00  0.00000000E+00
  0.00000000E+00  0.00000000E+00  0.00000000E+00
  0.00000000E+00  0.00000000E+00  0.00000000E+00
  0.00000000E+00  0.00000000E+00  0.00000000E+00
  0.00000000E+00  0.00000000E+00  0.00000000E+00
  0.00000000E+00  0.00000000E+00  0.00000000E+00
  0.00000000E+00  0.00000000E+00  0.00000000E+00
  0.00000000E+00  0.00000000E+00  0.00000000E+00
  0.00000000E+00  0.00000000E+00  0.00000000E+00
  0.00000000E+00  0.00000000E+00  0.00000000E+00
  0.00000000E+00  0.00000000E+00  0.00000000E+00
  0.00000000E+00  0.00000000E+00  0.00000000E+00
  0.00000000E+00  0.00000000E+00  0.00000000E+00
  0.00000000E+00  0.00000000E+00  0.00000000E+00
  0.00000000E+00  0.00000000E+00  0.00000000E+00
  0.00000000E+00  0.00000000E+00  0.00000000E+00
  0.00000000E+00  0.00000000E+00  0.00000000E+00
  0.00000000E+00  0.00000000E+00  0.00000000E+00
  0.00000000E+00  0.00000000E+00  0.00000000E+00
  0.00000000E+00  0.00000000E+00  0.00000000E+00
  0.00000000E+00  0.00000000E+00  0.00000000E+00
  0.00000000E+00  0.00000000E+00  0.00000000E+00
  0.00000000E+00  0.00000000E+00  0.00000000E+00
  0.00000000E+00  0.00000000E+00  0.00000000E+00
  0.00000000E+00  0.00000000E+00  0.00000000E+00
  0.00000000E+00  0.00000000E+00  0.00000000E+00
  0.00000000E+00  0.00000000E+00  0.00000000E+00
  0.00000000E+00  0.00000000E+00  0.00000000E+00
  0.00000000E+00  0.00000000E+00  0.00000000E+00
  0.00000000E+00  0.00000000E+00  0.00000000E+00
  0.00000000E+00  0.00000000E+00  0.00000000E+00
  0.00000000E+00  0.00000000E+00  0.00000000E+00
  0.00000000E+00  0.00000000E+00  0.00000000E+00
  0.00000000E+00  0.00000000E+00  0.00000000E+00
  0.00000000E+00  0.00000000E+00  0.00000000E+00
  0.00000000E+00  0.00000000E+00  0.00000000E+00
  0.00000000E+00  0.00000000E+00  0.00000000E+00
  0.00000000E+00  0.00000000E+00  0.00000000E+00
  0.00000000E+00  0.00000000E+00  0.00000000E+00
  0.00000000E+00  0.00000000E+00  0.00000000E+00
  0.00000000E+00  0.00000000E+00  0.00000000E+00
  0.00000000E+00  0.00000000E+00  0.00000000E+00
  0.00000000E+00  0.00000000E+00  0.00000000E+00
