 H  C  O Cu                             
   1.00000000000000     
    10.2710469276006560    0.0000000000000000    0.0000000000000006
     2.5677617319001635    6.2897060242006209    0.0000000000000005
     0.0000000000000000    0.0000000000000000   30.0000000000000000
   H    C    O    Cu
     2     4     4    48
Selective dynamics
Direct
  0.1795849291860728  0.1714012415418037  0.2402014651194013   T   T   T
  0.8203867833055202  0.8286199715335149  0.7597993138517156   T   T   T
  0.8038322799588322  0.8346222929353786  0.6953404019716686   T   T   T
  0.1961413927841398  0.1654259405311453  0.3046595879926429   T   T   T
  0.6560772271184192  0.8328689056538997  0.6985231516555321   T   T   T
  0.3438876398625828  0.1671335684608325  0.3014752830307795   T   T   T
  0.1273654141015777  0.1703706447517588  0.2675220889551532   T   T   T
  0.4049956295320900  0.1599569382455230  0.2661938162382376   T   T   T
  0.5949705312284658  0.8400295786140322  0.7338117360728933   T   T   T
  0.8725941223150256  0.8296764615744361  0.7324769030403769   T   T   T
  0.1361736127148342  0.1651414446765296  0.3645703314138329   T   T   T
  0.4015047386250987  0.1686308009432427  0.3636005061829113   T   T   T
  0.6859216422086442  0.5031013277688736  0.3883248102645160   T   T   T
  0.9352198736104009  0.5032144155277499  0.3887724591822242   T   T   T
  0.6457472929991631  0.1696971937609301  0.3654250737966159   T   T   T
  0.8906981029274396  0.1680728519381136  0.3657442357216252   T   T   T
  0.3124965692478412  0.5000210128637335  0.4629380646063197   F   F   F
  0.0624965692478412  0.5000210128637335  0.4629380646063197   F   F   F
  0.5624965692478412  0.5000210128637335  0.4629380646063197   F   F   F
  0.8124965692478412  0.5000210128637335  0.4629380646063197   F   F   F
  0.3541632359145055  0.8333543461970692  0.4876463633917751   F   F   F
  0.1041632359145055  0.8333543461970692  0.4876463633917751   F   F   F
  0.1866039206793546  0.5005663243465734  0.3882612265671053   T   T   T
  0.4366621270621416  0.5028498317501062  0.3886065343100172   T   T   T
  0.2289588104573701  0.8323573471945573  0.4116845329098884   T   T   T
  0.7286217030750967  0.8331580978476151  0.4119743763592546   T   T   T
  0.9798047324369932  0.8324149322241691  0.4118627025813882   T   T   T
  0.4782332457024159  0.8341570034577002  0.4116328304056108   T   T   T
  0.2708299025811769  0.1666876795303978  0.4382297658208572   F   F   F
  0.5208299025811769  0.1666876795303978  0.4382297658208572   F   F   F
  0.0208299025811769  0.1666876795303978  0.4382297658208572   F   F   F
  0.7708299025811769  0.1666876795303978  0.4382297658208572   F   F   F
  0.6874965692478412  0.5000210128637335  0.5370629609626789   F   F   F
  0.9374965692478412  0.5000210128637335  0.5370629609626789   F   F   F
  0.1874965692478412  0.5000210128637335  0.5370629609626789   F   F   F
  0.4374965692478412  0.5000210128637335  0.5370629609626789   F   F   F
  0.6458299025811769  0.1666876795303978  0.5123546621772235   F   F   F
  0.3958299025811769  0.1666876795303978  0.5123546621772235   F   F   F
  0.1458299025811769  0.1666876795303978  0.5123546621772235   F   F   F
  0.8958299025811769  0.1666876795303978  0.5123546621772235   F   F   F
  0.6041632359145055  0.8333543461970692  0.4876463633917751   F   F   F
  0.8541632359145055  0.8333543461970692  0.4876463633917751   F   F   F
  0.4791632359145055  0.8333543461970692  0.5617712597481344   F   F   F
  0.7291632359145055  0.8333543461970692  0.5617712597481344   F   F   F
  0.5217664172643922  0.1658629178731533  0.5883705300602339   T   T   T
  0.2713721727375846  0.1668715787437837  0.5880257238795228   T   T   T
  0.9791632359145055  0.8333543461970692  0.5617712597481344   F   F   F
  0.2291632359145055  0.8333543461970692  0.5617712597481344   F   F   F
  0.3542384345613625  0.8303192541682065  0.6345746295485579   T   T   T
  0.1092945761932027  0.8319654434994921  0.6342576789443553   T   T   T
  0.8638087559663874  0.8349051699736358  0.6354309178000603   T   T   T
  0.5984724602488778  0.8313712852058273  0.6363998554073562   T   T   T
  0.5633076904625008  0.4971721709068823  0.6113884867893451   T   T   T
  0.8133667039918777  0.4994679942678005  0.6117383089636935   T   T   T
  0.0647645735734460  0.4968262957742546  0.6112260830931672   T   T   T
  0.3140638345357014  0.4969180577016478  0.6116756998744661   T   T   T
  0.7710306497257572  0.1676746457615252  0.5883147141342795   T   T   T
  0.0201748928634957  0.1676249013287786  0.5881353297934033   T   T   T
 
  0.00000000E+00  0.00000000E+00  0.00000000E+00
  0.00000000E+00  0.00000000E+00  0.00000000E+00
  0.00000000E+00  0.00000000E+00  0.00000000E+00
  0.00000000E+00  0.00000000E+00  0.00000000E+00
  0.00000000E+00  0.00000000E+00  0.00000000E+00
  0.00000000E+00  0.00000000E+00  0.00000000E+00
  0.00000000E+00  0.00000000E+00  0.00000000E+00
  0.00000000E+00  0.00000000E+00  0.00000000E+00
  0.00000000E+00  0.00000000E+00  0.00000000E+00
  0.00000000E+00  0.00000000E+00  0.00000000E+00
  0.00000000E+00  0.00000000E+00  0.00000000E+00
  0.00000000E+00  0.00000000E+00  0.00000000E+00
  0.00000000E+00  0.00000000E+00  0.00000000E+00
  0.00000000E+00  0.00000000E+00  0.00000000E+00
  0.00000000E+00  0.00000000E+00  0.00000000E+00
  0.00000000E+00  0.00000000E+00  0.00000000E+00
  0.00000000E+00  0.00000000E+00  0.00000000E+00
  0.00000000E+00  0.00000000E+00  0.00000000E+00
  0.00000000E+00  0.00000000E+00  0.00000000E+00
  0.00000000E+00  0.00000000E+00  0.00000000E+00
  0.00000000E+00  0.00000000E+00  0.00000000E+00
  0.00000000E+00  0.00000000E+00  0.00000000E+00
  0.00000000E+00  0.00000000E+00  0.00000000E+00
  0.00000000E+00  0.00000000E+00  0.00000000E+00
  0.00000000E+00  0.00000000E+00  0.00000000E+00
  0.00000000E+00  0.00000000E+00  0.00000000E+00
  0.00000000E+00  0.00000000E+00  0.00000000E+00
  0.00000000E+00  0.00000000E+00  0.00000000E+00
  0.00000000E+00  0.00000000E+00  0.00000000E+00
  0.00000000E+00  0.00000000E+00  0.00000000E+00
  0.00000000E+00  0.00000000E+00  0.00000000E+00
  0.00000000E+00  0.00000000E+00  0.00000000E+00
  0.00000000E+00  0.00000000E+00  0.00000000E+00
  0.00000000E+00  0.00000000E+00  0.00000000E+00
  0.00000000E+00  0.00000000E+00  0.00000000E+00
  0.00000000E+00  0.00000000E+00  0.00000000E+00
  0.00000000E+00  0.00000000E+00  0.00000000E+00
  0.00000000E+00  0.00000000E+00  0.00000000E+00
  0.00000000E+00  0.00000000E+00  0.00000000E+00
  0.00000000E+00  0.00000000E+00  0.00000000E+00
  0.00000000E+00  0.00000000E+00  0.00000000E+00
  0.00000000E+00  0.00000000E+00  0.00000000E+00
  0.00000000E+00  0.00000000E+00  0.00000000E+00
  0.00000000E+00  0.00000000E+00  0.00000000E+00
  0.00000000E+00  0.00000000E+00  0.00000000E+00
  0.00000000E+00  0.00000000E+00  0.00000000E+00
  0.00000000E+00  0.00000000E+00  0.00000000E+00
  0.00000000E+00  0.00000000E+00  0.00000000E+00
  0.00000000E+00  0.00000000E+00  0.00000000E+00
  0.00000000E+00  0.00000000E+00  0.00000000E+00
  0.00000000E+00  0.00000000E+00  0.00000000E+00
  0.00000000E+00  0.00000000E+00  0.00000000E+00
  0.00000000E+00  0.00000000E+00  0.00000000E+00
  0.00000000E+00  0.00000000E+00  0.00000000E+00
  0.00000000E+00  0.00000000E+00  0.00000000E+00
  0.00000000E+00  0.00000000E+00  0.00000000E+00
  0.00000000E+00  0.00000000E+00  0.00000000E+00
  0.00000000E+00  0.00000000E+00  0.00000000E+00
