 H  C  O Cu                             
   1.00000000000000     
    10.2710469276006560    0.0000000000000000    0.0000000000000006
     2.5677617319001635    6.2897060242006209    0.0000000000000005
     0.0000000000000000    0.0000000000000000   30.0000000000000000
   H    C    O    Cu
     4     2     2    48
Selective dynamics
Direct
  0.3269164809047237  0.4036099899225337  0.2759267952584856   T   T   T
  0.4320147971726666  0.9613151067293814  0.2873375077101209   T   T   T
  0.5682611732796101  0.0386797985034136  0.7125642053519033   T   T   T
  0.6724959048003172  0.5965057948054658  0.7241178718443214   T   T   T
  0.6041621758387211  0.8762997527251969  0.6993870350877851   T   T   T
  0.3958886240739535  0.1236167047811367  0.3005686192124547   T   T   T
  0.3599522871463516  0.2548464532210499  0.2667920437613762   T   T   T
  0.6397687103846394  0.7453069031959179  0.7332070371678677   T   T   T
  0.1460311914883199  0.1685661853719357  0.3651913176950790   T   T   T
  0.6452738793228511  0.1701506346996268  0.3652094749951758   T   T   T
  0.8946918489055592  0.1708734005715763  0.3655435824280200   T   T   T
  0.3952098936786197  0.1710515487413271  0.3631653686375766   T   T   T
  0.6871939538327010  0.5018365557971850  0.3879032343402102   T   T   T
  0.9370886654678693  0.5017969686866404  0.3878840307810707   T   T   T
  0.1862431968300519  0.5030521804210839  0.3888305760192364   T   T   T
  0.4378455434855128  0.5025861374213704  0.3889564555123465   T   T   T
  0.3125050230424478  0.4997410779376708  0.4629231309054163   F   F   F
  0.5625050230424478  0.4997410779376708  0.4629231309054163   F   F   F
  0.0625050230424478  0.4997410779376708  0.4629231309054163   F   F   F
  0.8125050230424478  0.4997410779376708  0.4629231309054163   F   F   F
  0.3541716897091121  0.8330744112710065  0.4876314296908717   F   F   F
  0.1041716897091121  0.8330744112710065  0.4876314296908717   F   F   F
  0.8541716897091121  0.8330744112710065  0.4876314296908717   F   F   F
  0.6041716897091121  0.8330744112710065  0.4876314296908717   F   F   F
  0.4795605079651079  0.8324916076640687  0.4121554897851432   T   T   T
  0.7296095549588968  0.8323210504276130  0.4113424632400359   T   T   T
  0.2295460556919740  0.8323848565599730  0.4114468594094610   T   T   T
  0.9794476424836810  0.8325851007052641  0.4112242039484610   T   T   T
  0.2708383563757835  0.1664077446043351  0.4382148321199608   F   F   F
  0.5208383563757835  0.1664077446043351  0.4382148321199608   F   F   F
  0.0208383563757835  0.1664077446043351  0.4382148321199608   F   F   F
  0.7708383563757835  0.1664077446043351  0.4382148321199608   F   F   F
  0.6875050230424478  0.4997410779376708  0.5370480272617897   F   F   F
  0.9375050230424478  0.4997410779376708  0.5370480272617897   F   F   F
  0.1875050230424478  0.4997410779376708  0.5370480272617897   F   F   F
  0.4375050230424478  0.4997410779376708  0.5370480272617897   F   F   F
  0.3958383563757835  0.1664077446043351  0.5123397284763342   F   F   F
  0.1458383563757835  0.1664077446043351  0.5123397284763342   F   F   F
  0.6458383563757835  0.1664077446043351  0.5123397284763342   F   F   F
  0.8958383563757835  0.1664077446043351  0.5123397284763342   F   F   F
  0.4791716897091121  0.8330744112710065  0.5617563260472451   F   F   F
  0.7291716897091121  0.8330744112710065  0.5617563260472451   F   F   F
  0.9791716897091121  0.8330744112710065  0.5617563260472451   F   F   F
  0.2291716897091121  0.8330744112710065  0.5617563260472451   F   F   F
  0.5204444608719629  0.1670127946151081  0.5878188014153337   T   T   T
  0.2704031313404691  0.1671919953692509  0.5886355070335954   T   T   T
  0.0205545036662541  0.1669521467815110  0.5887438708708745   T   T   T
  0.7704794422357438  0.1671113604777706  0.5885251461621953   T   T   T
  0.3547365422436415  0.8293764730392246  0.6347602345737775   T   T   T
  0.1052925745549501  0.8287125025955749  0.6344350583909771   T   T   T
  0.8539483312728445  0.8309278013637844  0.6347832881624291   T   T   T
  0.6047750299803600  0.8284737520300898  0.6368078874588109   T   T   T
  0.0629220201575001  0.4977223037743068  0.6120914478479227   T   T   T
  0.3128139935770249  0.4977028650945610  0.6120724105486322   T   T   T
  0.5621681507153190  0.4968849128996810  0.6110139354797435   T   T   T
  0.8137519917424310  0.4964600212444403  0.6111450291394817   T   T   T
 
  0.00000000E+00  0.00000000E+00  0.00000000E+00
  0.00000000E+00  0.00000000E+00  0.00000000E+00
  0.00000000E+00  0.00000000E+00  0.00000000E+00
  0.00000000E+00  0.00000000E+00  0.00000000E+00
  0.00000000E+00  0.00000000E+00  0.00000000E+00
  0.00000000E+00  0.00000000E+00  0.00000000E+00
  0.00000000E+00  0.00000000E+00  0.00000000E+00
  0.00000000E+00  0.00000000E+00  0.00000000E+00
  0.00000000E+00  0.00000000E+00  0.00000000E+00
  0.00000000E+00  0.00000000E+00  0.00000000E+00
  0.00000000E+00  0.00000000E+00  0.00000000E+00
  0.00000000E+00  0.00000000E+00  0.00000000E+00
  0.00000000E+00  0.00000000E+00  0.00000000E+00
  0.00000000E+00  0.00000000E+00  0.00000000E+00
  0.00000000E+00  0.00000000E+00  0.00000000E+00
  0.00000000E+00  0.00000000E+00  0.00000000E+00
  0.00000000E+00  0.00000000E+00  0.00000000E+00
  0.00000000E+00  0.00000000E+00  0.00000000E+00
  0.00000000E+00  0.00000000E+00  0.00000000E+00
  0.00000000E+00  0.00000000E+00  0.00000000E+00
  0.00000000E+00  0.00000000E+00  0.00000000E+00
  0.00000000E+00  0.00000000E+00  0.00000000E+00
  0.00000000E+00  0.00000000E+00  0.00000000E+00
  0.00000000E+00  0.00000000E+00  0.00000000E+00
  0.00000000E+00  0.00000000E+00  0.00000000E+00
  0.00000000E+00  0.00000000E+00  0.00000000E+00
  0.00000000E+00  0.00000000E+00  0.00000000E+00
  0.00000000E+00  0.00000000E+00  0.00000000E+00
  0.00000000E+00  0.00000000E+00  0.00000000E+00
  0.00000000E+00  0.00000000E+00  0.00000000E+00
  0.00000000E+00  0.00000000E+00  0.00000000E+00
  0.00000000E+00  0.00000000E+00  0.00000000E+00
  0.00000000E+00  0.00000000E+00  0.00000000E+00
  0.00000000E+00  0.00000000E+00  0.00000000E+00
  0.00000000E+00  0.00000000E+00  0.00000000E+00
  0.00000000E+00  0.00000000E+00  0.00000000E+00
  0.00000000E+00  0.00000000E+00  0.00000000E+00
  0.00000000E+00  0.00000000E+00  0.00000000E+00
  0.00000000E+00  0.00000000E+00  0.00000000E+00
  0.00000000E+00  0.00000000E+00  0.00000000E+00
  0.00000000E+00  0.00000000E+00  0.00000000E+00
  0.00000000E+00  0.00000000E+00  0.00000000E+00
  0.00000000E+00  0.00000000E+00  0.00000000E+00
  0.00000000E+00  0.00000000E+00  0.00000000E+00
  0.00000000E+00  0.00000000E+00  0.00000000E+00
  0.00000000E+00  0.00000000E+00  0.00000000E+00
  0.00000000E+00  0.00000000E+00  0.00000000E+00
  0.00000000E+00  0.00000000E+00  0.00000000E+00
  0.00000000E+00  0.00000000E+00  0.00000000E+00
  0.00000000E+00  0.00000000E+00  0.00000000E+00
  0.00000000E+00  0.00000000E+00  0.00000000E+00
  0.00000000E+00  0.00000000E+00  0.00000000E+00
  0.00000000E+00  0.00000000E+00  0.00000000E+00
  0.00000000E+00  0.00000000E+00  0.00000000E+00
  0.00000000E+00  0.00000000E+00  0.00000000E+00
  0.00000000E+00  0.00000000E+00  0.00000000E+00
