 C  O Cu                                
   1.00000000000000     
    10.2710469276006560    0.0000000000000000    0.0000000000000006
     2.5677617319001635    6.2897060242006209    0.0000000000000005
     0.0000000000000000    0.0000000000000000   32.6149543968023465
   C    O    Cu
     4     4    48
Selective dynamics
Direct
  0.1929331714120650  0.1458004774297805  0.3157573069203963   T   T   T
  0.3729170892697695  0.1535374790522326  0.3153012695778514   T   T   T
  0.6511358006302217  0.8449245108778882  0.6844141035540545   T   T   T
  0.8317571154054946  0.8499922369043205  0.6842933392472474   T   T   T
  0.1422995424802096  0.1398757934669632  0.2825468334882970   T   T   T
  0.4191698005103035  0.1592482369432986  0.2814074157933959   T   T   T
  0.6022297696741035  0.8447264628871807  0.7181303479232426   T   T   T
  0.8811227797698962  0.8563518237742116  0.7176735110305685   T   T   T
  0.1464666111631630  0.1668403124814333  0.3738071522055577   T   T   T
  0.4175474192641744  0.1675808845816178  0.3730057410361454   T   T   T
  0.6603100158571849  0.1739871251163265  0.3766795829342726   T   T   T
  0.9019609451702522  0.1735888424703305  0.3768278590481842   T   T   T
  0.6991501738322654  0.5040027050337699  0.3969530772788303   T   T   T
  0.9494914109189594  0.5014913336145881  0.3974174185541415   T   T   T
  0.2009554207319866  0.4960189069428580  0.3976494922137164   T   T   T
  0.4495444145032934  0.5014749875063629  0.3974699429872004   T   T   T
  0.3268102038023102  0.4967576674194092  0.4659090909090935   F   F   F
  0.0768102038023102  0.4967576674194092  0.4659090909090935   F   F   F
  0.5768102038023102  0.4967576674194092  0.4659090909090935   F   F   F
  0.8268102038023102  0.4967576674194092  0.4659090909090935   F   F   F
  0.3684768704689745  0.8300910007527449  0.4886363636363669   F   F   F
  0.1184768704689745  0.8300910007527449  0.4886363636363669   F   F   F
  0.8684768704689745  0.8300910007527449  0.4886363636363669   F   F   F
  0.6184768704689745  0.8300910007527449  0.4886363636363669   F   F   F
  0.2424749158332702  0.8318149656247087  0.4180176928516346   T   T   T
  0.7423675602651301  0.8318657121060156  0.4179206312295136   T   T   T
  0.9934761353272279  0.8303001067585214  0.4179510939531639   T   T   T
  0.4915965383251262  0.8328780717431812  0.4180582371258481   T   T   T
  0.2851435371356459  0.1634243340860735  0.4431818181818201   F   F   F
  0.5351435371356459  0.1634243340860735  0.4431818181818201   F   F   F
  0.0351435371356459  0.1634243340860735  0.4431818181818201   F   F   F
  0.7851435371356459  0.1634243340860735  0.4431818181818201   F   F   F
  0.7018102038023102  0.4967576674194092  0.5340909090909065   F   F   F
  0.9518102038023102  0.4967576674194092  0.5340909090909065   F   F   F
  0.2018102038023102  0.4967576674194092  0.5340909090909065   F   F   F
  0.4518102038023102  0.4967576674194092  0.5340909090909065   F   F   F
  0.6601435371356459  0.1634243340860735  0.5113636363636331   F   F   F
  0.4101435371356459  0.1634243340860735  0.5113636363636331   F   F   F
  0.1601435371356459  0.1634243340860735  0.5113636363636331   F   F   F
  0.9101435371356459  0.1634243340860735  0.5113636363636331   F   F   F
  0.4934768704689745  0.8300910007527449  0.5568181818181799   F   F   F
  0.7434768704689745  0.8300910007527449  0.5568181818181799   F   F   F
  0.9934768704689745  0.8300910007527449  0.5568181818181799   F   F   F
  0.2434768704689745  0.8300910007527449  0.5568181818181799   F   F   F
  0.5366458439756343  0.1608442141838111  0.5818425664641396   T   T   T
  0.2858519780138664  0.1617187504981175  0.5820766175105376   T   T   T
  0.0348693002271361  0.1632753109941376  0.5820591486254187   T   T   T
  0.7859040750204684  0.1616457068620321  0.5820035652713287   T   T   T
  0.3674749599128404  0.8193952653381871  0.6233057751151847   T   T   T
  0.1258532845450873  0.8199768336818636  0.6231816732603406   T   T   T
  0.8811312275683321  0.8267540114595775  0.6264311879539548   T   T   T
  0.6098103918051407  0.8262918484819153  0.6266484298193120   T   T   T
  0.5785952908071650  0.4918422184265765  0.6025183396075917   T   T   T
  0.8271860761195171  0.4975323594596048  0.6023599278851961   T   T   T
  0.0784446582961777  0.4922707449553414  0.6026104176210936   T   T   T
  0.3288308461072234  0.4895457330358752  0.6030450309486994   T   T   T
 
  0.00000000E+00  0.00000000E+00  0.00000000E+00
  0.00000000E+00  0.00000000E+00  0.00000000E+00
  0.00000000E+00  0.00000000E+00  0.00000000E+00
  0.00000000E+00  0.00000000E+00  0.00000000E+00
  0.00000000E+00  0.00000000E+00  0.00000000E+00
  0.00000000E+00  0.00000000E+00  0.00000000E+00
  0.00000000E+00  0.00000000E+00  0.00000000E+00
  0.00000000E+00  0.00000000E+00  0.00000000E+00
  0.00000000E+00  0.00000000E+00  0.00000000E+00
  0.00000000E+00  0.00000000E+00  0.00000000E+00
  0.00000000E+00  0.00000000E+00  0.00000000E+00
  0.00000000E+00  0.00000000E+00  0.00000000E+00
  0.00000000E+00  0.00000000E+00  0.00000000E+00
  0.00000000E+00  0.00000000E+00  0.00000000E+00
  0.00000000E+00  0.00000000E+00  0.00000000E+00
  0.00000000E+00  0.00000000E+00  0.00000000E+00
  0.00000000E+00  0.00000000E+00  0.00000000E+00
  0.00000000E+00  0.00000000E+00  0.00000000E+00
  0.00000000E+00  0.00000000E+00  0.00000000E+00
  0.00000000E+00  0.00000000E+00  0.00000000E+00
  0.00000000E+00  0.00000000E+00  0.00000000E+00
  0.00000000E+00  0.00000000E+00  0.00000000E+00
  0.00000000E+00  0.00000000E+00  0.00000000E+00
  0.00000000E+00  0.00000000E+00  0.00000000E+00
  0.00000000E+00  0.00000000E+00  0.00000000E+00
  0.00000000E+00  0.00000000E+00  0.00000000E+00
  0.00000000E+00  0.00000000E+00  0.00000000E+00
  0.00000000E+00  0.00000000E+00  0.00000000E+00
  0.00000000E+00  0.00000000E+00  0.00000000E+00
  0.00000000E+00  0.00000000E+00  0.00000000E+00
  0.00000000E+00  0.00000000E+00  0.00000000E+00
  0.00000000E+00  0.00000000E+00  0.00000000E+00
  0.00000000E+00  0.00000000E+00  0.00000000E+00
  0.00000000E+00  0.00000000E+00  0.00000000E+00
  0.00000000E+00  0.00000000E+00  0.00000000E+00
  0.00000000E+00  0.00000000E+00  0.00000000E+00
  0.00000000E+00  0.00000000E+00  0.00000000E+00
  0.00000000E+00  0.00000000E+00  0.00000000E+00
  0.00000000E+00  0.00000000E+00  0.00000000E+00
  0.00000000E+00  0.00000000E+00  0.00000000E+00
  0.00000000E+00  0.00000000E+00  0.00000000E+00
  0.00000000E+00  0.00000000E+00  0.00000000E+00
  0.00000000E+00  0.00000000E+00  0.00000000E+00
  0.00000000E+00  0.00000000E+00  0.00000000E+00
  0.00000000E+00  0.00000000E+00  0.00000000E+00
  0.00000000E+00  0.00000000E+00  0.00000000E+00
  0.00000000E+00  0.00000000E+00  0.00000000E+00
  0.00000000E+00  0.00000000E+00  0.00000000E+00
  0.00000000E+00  0.00000000E+00  0.00000000E+00
  0.00000000E+00  0.00000000E+00  0.00000000E+00
  0.00000000E+00  0.00000000E+00  0.00000000E+00
  0.00000000E+00  0.00000000E+00  0.00000000E+00
  0.00000000E+00  0.00000000E+00  0.00000000E+00
  0.00000000E+00  0.00000000E+00  0.00000000E+00
  0.00000000E+00  0.00000000E+00  0.00000000E+00
  0.00000000E+00  0.00000000E+00  0.00000000E+00
