Cu                                      
   1.00000000000000     
    10.2710469276006560    0.0000000000000000    0.0000000000000006
     2.5677617319001635    6.2897060242006209    0.0000000000000005
     0.0000000000000000    0.0000000000000000   20.0000000000000000
   Cu
    48
Selective dynamics
Direct
  0.4791815456456661  0.8333333333333357  0.5926535619867224   F   F   F
  0.7291815456456661  0.8333333333333357  0.5926535619867224   F   F   F
  0.9791815456456661  0.8333333333333357  0.5926535619867224   F   F   F
  0.2291815456456661  0.8333333333333357  0.5926535619867224   F   F   F
  0.5628031586882543  0.4992649585026143  0.6681201347912662   T   T   T
  0.8128029857985979  0.4992647118890829  0.6681201508866579   T   T   T
  0.0628032094456330  0.4992648301897944  0.6681201622371731   T   T   T
  0.3128030196720744  0.4992649140679717  0.6681201949218618   T   T   T
  0.7703696266234985  0.1689625362315468  0.6327790090404832   T   T   T
  0.0203694808106221  0.1689625114116353  0.6327789937846404   T   T   T
  0.2703695439509275  0.1689626264061275  0.6327789743750358   T   T   T
  0.5203695341133709  0.1689624722932663  0.6327789801720414   T   T   T
  0.6044333998421365  0.8324871492553214  0.7015392657292452   T   T   T
  0.8544334707976091  0.8324869842422302  0.7015392658676518   T   T   T
  0.1044334580241966  0.8324869672778945  0.7015392290096187   T   T   T
  0.3544333992421116  0.8324871168992942  0.7015392168442673   T   T   T
  0.8125148789790018  0.5000000000000000  0.4444037692739968   F   F   F
  0.0625148789790018  0.5000000000000000  0.4444037692739968   F   F   F
  0.3125148789790018  0.5000000000000000  0.4444037692739968   F   F   F
  0.5625148789790018  0.5000000000000000  0.4444037692739968   F   F   F
  0.8958482123123375  0.1666666666666643  0.5185286656303560   F   F   F
  0.1458482123123375  0.1666666666666643  0.5185286656303560   F   F   F
  0.3958482123123375  0.1666666666666643  0.5185286656303560   F   F   F
  0.6458482123123375  0.1666666666666643  0.5185286656303560   F   F   F
  0.6041815456456661  0.8333333333333357  0.4814662174521800   F   F   F
  0.8541815456456661  0.8333333333333357  0.4814662174521800   F   F   F
  0.1041815456456661  0.8333333333333357  0.4814662174521800   F   F   F
  0.3541815456456661  0.8333333333333357  0.4814662174521800   F   F   F
  0.6875148789790018  0.5000000000000000  0.5555911138085392   F   F   F
  0.9375148789790018  0.5000000000000000  0.5555911138085392   F   F   F
  0.1875148789790018  0.5000000000000000  0.5555911138085392   F   F   F
  0.4375148789790018  0.5000000000000000  0.5555911138085392   F   F   F
  0.6455969937063060  0.1674973267079665  0.2984608031832323   T   T   T
  0.8955969437013209  0.1674972720006451  0.2984607662256522   T   T   T
  0.1455969929749159  0.1674972718713974  0.2984607341323482   T   T   T
  0.3955969047523666  0.1674973497602252  0.2984607711887080   T   T   T
  0.7296305842126785  0.8311069379286380  0.3672126749566189   T   T   T
  0.9796305191893779  0.8311069821879613  0.3672126186347171   T   T   T
  0.2296305394417928  0.8311070813984429  0.3672126127469326   T   T   T
  0.4796304967101435  0.8311070626840120  0.3672126113598182   T   T   T
  0.6872896138185070  0.5006764924299176  0.3318690967354172   T   T   T
  0.9372897746930846  0.5006764500864307  0.3318691302476182   T   T   T
  0.1872895421156997  0.5006763723067351  0.3318691060898118   T   T   T
  0.4372897338108999  0.5006765306599306  0.3318691118710504   T   T   T
  0.5208482123123375  0.1666666666666643  0.4073413210958066   F   F   F
  0.7708482123123375  0.1666666666666643  0.4073413210958066   F   F   F
  0.0208482123123375  0.1666666666666643  0.4073413210958066   F   F   F
  0.2708482123123375  0.1666666666666643  0.4073413210958066   F   F   F
 
  0.00000000E+00  0.00000000E+00  0.00000000E+00
  0.00000000E+00  0.00000000E+00  0.00000000E+00
  0.00000000E+00  0.00000000E+00  0.00000000E+00
  0.00000000E+00  0.00000000E+00  0.00000000E+00
  0.00000000E+00  0.00000000E+00  0.00000000E+00
  0.00000000E+00  0.00000000E+00  0.00000000E+00
  0.00000000E+00  0.00000000E+00  0.00000000E+00
  0.00000000E+00  0.00000000E+00  0.00000000E+00
  0.00000000E+00  0.00000000E+00  0.00000000E+00
  0.00000000E+00  0.00000000E+00  0.00000000E+00
  0.00000000E+00  0.00000000E+00  0.00000000E+00
  0.00000000E+00  0.00000000E+00  0.00000000E+00
  0.00000000E+00  0.00000000E+00  0.00000000E+00
  0.00000000E+00  0.00000000E+00  0.00000000E+00
  0.00000000E+00  0.00000000E+00  0.00000000E+00
  0.00000000E+00  0.00000000E+00  0.00000000E+00
  0.00000000E+00  0.00000000E+00  0.00000000E+00
  0.00000000E+00  0.00000000E+00  0.00000000E+00
  0.00000000E+00  0.00000000E+00  0.00000000E+00
  0.00000000E+00  0.00000000E+00  0.00000000E+00
  0.00000000E+00  0.00000000E+00  0.00000000E+00
  0.00000000E+00  0.00000000E+00  0.00000000E+00
  0.00000000E+00  0.00000000E+00  0.00000000E+00
  0.00000000E+00  0.00000000E+00  0.00000000E+00
  0.00000000E+00  0.00000000E+00  0.00000000E+00
  0.00000000E+00  0.00000000E+00  0.00000000E+00
  0.00000000E+00  0.00000000E+00  0.00000000E+00
  0.00000000E+00  0.00000000E+00  0.00000000E+00
  0.00000000E+00  0.00000000E+00  0.00000000E+00
  0.00000000E+00  0.00000000E+00  0.00000000E+00
  0.00000000E+00  0.00000000E+00  0.00000000E+00
  0.00000000E+00  0.00000000E+00  0.00000000E+00
  0.00000000E+00  0.00000000E+00  0.00000000E+00
  0.00000000E+00  0.00000000E+00  0.00000000E+00
  0.00000000E+00  0.00000000E+00  0.00000000E+00
  0.00000000E+00  0.00000000E+00  0.00000000E+00
  0.00000000E+00  0.00000000E+00  0.00000000E+00
  0.00000000E+00  0.00000000E+00  0.00000000E+00
  0.00000000E+00  0.00000000E+00  0.00000000E+00
  0.00000000E+00  0.00000000E+00  0.00000000E+00
  0.00000000E+00  0.00000000E+00  0.00000000E+00
  0.00000000E+00  0.00000000E+00  0.00000000E+00
  0.00000000E+00  0.00000000E+00  0.00000000E+00
  0.00000000E+00  0.00000000E+00  0.00000000E+00
  0.00000000E+00  0.00000000E+00  0.00000000E+00
  0.00000000E+00  0.00000000E+00  0.00000000E+00
  0.00000000E+00  0.00000000E+00  0.00000000E+00
  0.00000000E+00  0.00000000E+00  0.00000000E+00
