 H Cu                                   
   1.00000000000000     
    10.2710469276006560    0.0000000000000000    0.0000000000000006
     2.5677617319001635    6.2897060242006209    0.0000000000000005
     0.0000000000000000    0.0000000000000000   30.0000000000000000
   H    Cu
     2    48
Selective dynamics
Direct
  0.2312548464984327  0.3140157394977753  0.3405027218900740   T   T   T
  0.7687483179044188  0.6859312830927139  0.6595097366283029   T   T   T
  0.1448857354034745  0.1682821345915378  0.3644755052773584   T   T   T
  0.6434590045403477  0.1679806217086532  0.3656451753333505   T   T   T
  0.6862333062918098  0.5023832166739135  0.3881314204274887   T   T   T
  0.9342928925735576  0.5026835511867391  0.3885363999619278   T   T   T
  0.8957334269459903  0.1656001729436696  0.3657631825323573   T   T   T
  0.3931181190636338  0.1726305727019867  0.3641271780469161   T   T   T
  0.4787734984076168  0.8346495265134337  0.4116637220209483   T   T   T
  0.7288682953719993  0.8325836143716367  0.4120146479533765   T   T   T
  0.2278345824905997  0.8314046683855926  0.4118787628242146   T   T   T
  0.9805036866595506  0.8300405883137115  0.4118481937632077   T   T   T
  0.2708272740316886  0.1666729488154246  0.4382458528902404   F   F   F
  0.5208272740316886  0.1666729488154246  0.4382458528902404   F   F   F
  0.1861284581394325  0.5014895364288802  0.3852646149143112   T   T   T
  0.4375350758377076  0.5041080806082584  0.3888914501619419   T   T   T
  0.3124939406983529  0.5000062821487603  0.4629541516756959   F   F   F
  0.5624939406983529  0.5000062821487603  0.4629541516756959   F   F   F
  0.0624939406983529  0.5000062821487603  0.4629541516756959   F   F   F
  0.8124939406983529  0.5000062821487603  0.4629541516756959   F   F   F
  0.3541606073650172  0.8333396154820960  0.4876624504611513   F   F   F
  0.1041606073650172  0.8333396154820960  0.4876624504611513   F   F   F
  0.8541606073650172  0.8333396154820960  0.4876624504611513   F   F   F
  0.6041606073650172  0.8333396154820960  0.4876624504611513   F   F   F
  0.8958272740316886  0.1666729488154246  0.5123707492466139   F   F   F
  0.6458272740316886  0.1666729488154246  0.5123707492466139   F   F   F
  0.1458272740316886  0.1666729488154246  0.5123707492466139   F   F   F
  0.3958272740316886  0.1666729488154246  0.5123707492466139   F   F   F
  0.4374939406983529  0.5000062821487603  0.5370790480320693   F   F   F
  0.1874939406983529  0.5000062821487603  0.5370790480320693   F   F   F
  0.0208272740316886  0.1666729488154246  0.4382458528902404   F   F   F
  0.7708272740316886  0.1666729488154246  0.4382458528902404   F   F   F
  0.6874939406983529  0.5000062821487603  0.5370790480320693   F   F   F
  0.9374939406983529  0.5000062821487603  0.5370790480320693   F   F   F
  0.4791606073650172  0.8333396154820960  0.5617873468175247   F   F   F
  0.7291606073650172  0.8333396154820960  0.5617873468175247   F   F   F
  0.5212158976231511  0.1653586175389506  0.5883665578593589   T   T   T
  0.2711240878037018  0.1674138517309111  0.5880170496724594   T   T   T
  0.9791606073650172  0.8333396154820960  0.5617873468175247   F   F   F
  0.2291606073650172  0.8333396154820960  0.5617873468175247   F   F   F
  0.8138626376979379  0.4985059169367828  0.6147550817480996   T   T   T
  0.5624549966094153  0.4958857229240028  0.6111395281393224   T   T   T
  0.3137588559296006  0.4976097979005280  0.6118995824639279   T   T   T
  0.0657034467430607  0.4973030677907681  0.6114942319129875   T   T   T
  0.6068695006040390  0.8273671416096179  0.6358988552831916   T   T   T
  0.8551111300658816  0.8317127784316807  0.6355528858789458   T   T   T
  0.0194881863391002  0.1699527499417508  0.5881829857268818   T   T   T
  0.7721534793268140  0.1685972154883097  0.5881500482922147   T   T   T
  0.3565318076380582  0.8320109870767697  0.6343864092693688   T   T   T
  0.1042632960842051  0.8343861136888691  0.6342680677054059   T   T   T
 
  0.00000000E+00  0.00000000E+00  0.00000000E+00
  0.00000000E+00  0.00000000E+00  0.00000000E+00
  0.00000000E+00  0.00000000E+00  0.00000000E+00
  0.00000000E+00  0.00000000E+00  0.00000000E+00
  0.00000000E+00  0.00000000E+00  0.00000000E+00
  0.00000000E+00  0.00000000E+00  0.00000000E+00
  0.00000000E+00  0.00000000E+00  0.00000000E+00
  0.00000000E+00  0.00000000E+00  0.00000000E+00
  0.00000000E+00  0.00000000E+00  0.00000000E+00
  0.00000000E+00  0.00000000E+00  0.00000000E+00
  0.00000000E+00  0.00000000E+00  0.00000000E+00
  0.00000000E+00  0.00000000E+00  0.00000000E+00
  0.00000000E+00  0.00000000E+00  0.00000000E+00
  0.00000000E+00  0.00000000E+00  0.00000000E+00
  0.00000000E+00  0.00000000E+00  0.00000000E+00
  0.00000000E+00  0.00000000E+00  0.00000000E+00
  0.00000000E+00  0.00000000E+00  0.00000000E+00
  0.00000000E+00  0.00000000E+00  0.00000000E+00
  0.00000000E+00  0.00000000E+00  0.00000000E+00
  0.00000000E+00  0.00000000E+00  0.00000000E+00
  0.00000000E+00  0.00000000E+00  0.00000000E+00
  0.00000000E+00  0.00000000E+00  0.00000000E+00
  0.00000000E+00  0.00000000E+00  0.00000000E+00
  0.00000000E+00  0.00000000E+00  0.00000000E+00
  0.00000000E+00  0.00000000E+00  0.00000000E+00
  0.00000000E+00  0.00000000E+00  0.00000000E+00
  0.00000000E+00  0.00000000E+00  0.00000000E+00
  0.00000000E+00  0.00000000E+00  0.00000000E+00
  0.00000000E+00  0.00000000E+00  0.00000000E+00
  0.00000000E+00  0.00000000E+00  0.00000000E+00
  0.00000000E+00  0.00000000E+00  0.00000000E+00
  0.00000000E+00  0.00000000E+00  0.00000000E+00
  0.00000000E+00  0.00000000E+00  0.00000000E+00
  0.00000000E+00  0.00000000E+00  0.00000000E+00
  0.00000000E+00  0.00000000E+00  0.00000000E+00
  0.00000000E+00  0.00000000E+00  0.00000000E+00
  0.00000000E+00  0.00000000E+00  0.00000000E+00
  0.00000000E+00  0.00000000E+00  0.00000000E+00
  0.00000000E+00  0.00000000E+00  0.00000000E+00
  0.00000000E+00  0.00000000E+00  0.00000000E+00
  0.00000000E+00  0.00000000E+00  0.00000000E+00
  0.00000000E+00  0.00000000E+00  0.00000000E+00
  0.00000000E+00  0.00000000E+00  0.00000000E+00
  0.00000000E+00  0.00000000E+00  0.00000000E+00
  0.00000000E+00  0.00000000E+00  0.00000000E+00
  0.00000000E+00  0.00000000E+00  0.00000000E+00
  0.00000000E+00  0.00000000E+00  0.00000000E+00
  0.00000000E+00  0.00000000E+00  0.00000000E+00
  0.00000000E+00  0.00000000E+00  0.00000000E+00
  0.00000000E+00  0.00000000E+00  0.00000000E+00
