Cu  O  C                                
   1.00000000000000     
    10.2710469276006560    0.0000000000000000    0.0000000000000006
     2.5677617319001635    6.2897060242006209    0.0000000000000005
     0.0000000000000000    0.0000000000000000   30.0000000000000000
   Cu   O    C 
    48     2     2
Selective dynamics
Direct
  0.4791666666666643  0.8333327585702861  0.5617662564797072   F   F   F
  0.7291666666666643  0.8333327585702861  0.5617662564797072   F   F   F
  0.9791666666666643  0.8333327585702861  0.5617662564797072   F   F   F
  0.2291666666666643  0.8333327585702861  0.5617662564797072   F   F   F
  0.5629953671078519  0.4981803304043551  0.6109982230170690   T   T   T
  0.8134109712029637  0.4975300509975457  0.6111097914659530   T   T   T
  0.0635075078931026  0.4976519442114377  0.6116504538060999   T   T   T
  0.3132126575060174  0.4980255687566115  0.6116251909594357   T   T   T
  0.7705785427406677  0.1678225605517682  0.5880342158290227   T   T   T
  0.0208883181260108  0.1670147367129423  0.5880683336457232   T   T   T
  0.2711586883533816  0.1675204057659049  0.5880116022443145   T   T   T
  0.5206044344144652  0.1679849540703938  0.5875883238577888   T   T   T
  0.6038305293881537  0.8354590245831445  0.6365239445284493   T   T   T
  0.8565336108039064  0.8321993975411608  0.6341508933125450   T   T   T
  0.1048149984293107  0.8316788626715503  0.6346653010855022   T   T   T
  0.3532356350925410  0.8313691216664129  0.6342746130478619   T   T   T
  0.8125000000000000  0.4999994252369504  0.4629330613378855   F   F   F
  0.0625000000000000  0.4999994252369504  0.4629330613378855   F   F   F
  0.3125000000000000  0.4999994252369504  0.4629330613378855   F   F   F
  0.5625000000000000  0.4999994252369504  0.4629330613378855   F   F   F
  0.8958333333333357  0.1666660919036147  0.5123496589087893   F   F   F
  0.1458333333333357  0.1666660919036147  0.5123496589087893   F   F   F
  0.3958333333333357  0.1666660919036147  0.5123496589087893   F   F   F
  0.6458333333333357  0.1666660919036147  0.5123496589087893   F   F   F
  0.6041666666666643  0.8333327585702861  0.4876413601233409   F   F   F
  0.8541666666666643  0.8333327585702861  0.4876413601233409   F   F   F
  0.1041666666666643  0.8333327585702861  0.4876413601233409   F   F   F
  0.3541666666666643  0.8333327585702861  0.4876413601233409   F   F   F
  0.6875000000000000  0.4999994252369504  0.5370579576942447   F   F   F
  0.9375000000000000  0.4999994252369504  0.5370579576942447   F   F   F
  0.1875000000000000  0.4999994252369504  0.5370579576942447   F   F   F
  0.4375000000000000  0.4999994252369504  0.5370579576942447   F   F   F
  0.6468017609334478  0.1686033888397275  0.3657157375293503   T   T   T
  0.8951998663545421  0.1682671337759343  0.3653248650413535   T   T   T
  0.1434836962498087  0.1677759149979460  0.3658424851903050   T   T   T
  0.3961736660588162  0.1645582760662067  0.3634694345811709   T   T   T
  0.7288569150873977  0.8324539536604443  0.4119778083347422   T   T   T
  0.9791228737700097  0.8329574782297726  0.4119271284206787   T   T   T
  0.2294221159076891  0.8321677465644169  0.4119581656598794   T   T   T
  0.4794086056144055  0.8319976456883542  0.4123999884733456   T   T   T
  0.6868071889816393  0.5019467276680319  0.3883643717615242   T   T   T
  0.9365099842498497  0.5023222017803757  0.3883389473523093   T   T   T
  0.1865944552681867  0.5024746200675212  0.3888821496074616   T   T   T
  0.4370067209655836  0.5018338174261565  0.3889934653636949   T   T   T
  0.5208333333333357  0.1666660919036147  0.4382247625524229   F   F   F
  0.7708333333333357  0.1666660919036147  0.4382247625524229   F   F   F
  0.0208333333333357  0.1666660919036147  0.4382247625524229   F   F   F
  0.2708333333333357  0.1666660919036147  0.4382247625524229   F   F   F
  0.6038485613379408  0.8339665784507797  0.7381541338040423   T   T   T
  0.3961326111954664  0.1660028271918029  0.2618386141072356   T   T   T
  0.6028032331132996  0.8411239995293600  0.7000749434273231   T   T   T
  0.3971788948841509  0.1588810564715733  0.2999172514830420   T   T   T
 
  0.00000000E+00  0.00000000E+00  0.00000000E+00
  0.00000000E+00  0.00000000E+00  0.00000000E+00
  0.00000000E+00  0.00000000E+00  0.00000000E+00
  0.00000000E+00  0.00000000E+00  0.00000000E+00
  0.00000000E+00  0.00000000E+00  0.00000000E+00
  0.00000000E+00  0.00000000E+00  0.00000000E+00
  0.00000000E+00  0.00000000E+00  0.00000000E+00
  0.00000000E+00  0.00000000E+00  0.00000000E+00
  0.00000000E+00  0.00000000E+00  0.00000000E+00
  0.00000000E+00  0.00000000E+00  0.00000000E+00
  0.00000000E+00  0.00000000E+00  0.00000000E+00
  0.00000000E+00  0.00000000E+00  0.00000000E+00
  0.00000000E+00  0.00000000E+00  0.00000000E+00
  0.00000000E+00  0.00000000E+00  0.00000000E+00
  0.00000000E+00  0.00000000E+00  0.00000000E+00
  0.00000000E+00  0.00000000E+00  0.00000000E+00
  0.00000000E+00  0.00000000E+00  0.00000000E+00
  0.00000000E+00  0.00000000E+00  0.00000000E+00
  0.00000000E+00  0.00000000E+00  0.00000000E+00
  0.00000000E+00  0.00000000E+00  0.00000000E+00
  0.00000000E+00  0.00000000E+00  0.00000000E+00
  0.00000000E+00  0.00000000E+00  0.00000000E+00
  0.00000000E+00  0.00000000E+00  0.00000000E+00
  0.00000000E+00  0.00000000E+00  0.00000000E+00
  0.00000000E+00  0.00000000E+00  0.00000000E+00
  0.00000000E+00  0.00000000E+00  0.00000000E+00
  0.00000000E+00  0.00000000E+00  0.00000000E+00
  0.00000000E+00  0.00000000E+00  0.00000000E+00
  0.00000000E+00  0.00000000E+00  0.00000000E+00
  0.00000000E+00  0.00000000E+00  0.00000000E+00
  0.00000000E+00  0.00000000E+00  0.00000000E+00
  0.00000000E+00  0.00000000E+00  0.00000000E+00
  0.00000000E+00  0.00000000E+00  0.00000000E+00
  0.00000000E+00  0.00000000E+00  0.00000000E+00
  0.00000000E+00  0.00000000E+00  0.00000000E+00
  0.00000000E+00  0.00000000E+00  0.00000000E+00
  0.00000000E+00  0.00000000E+00  0.00000000E+00
  0.00000000E+00  0.00000000E+00  0.00000000E+00
  0.00000000E+00  0.00000000E+00  0.00000000E+00
  0.00000000E+00  0.00000000E+00  0.00000000E+00
  0.00000000E+00  0.00000000E+00  0.00000000E+00
  0.00000000E+00  0.00000000E+00  0.00000000E+00
  0.00000000E+00  0.00000000E+00  0.00000000E+00
  0.00000000E+00  0.00000000E+00  0.00000000E+00
  0.00000000E+00  0.00000000E+00  0.00000000E+00
  0.00000000E+00  0.00000000E+00  0.00000000E+00
  0.00000000E+00  0.00000000E+00  0.00000000E+00
  0.00000000E+00  0.00000000E+00  0.00000000E+00
  0.00000000E+00  0.00000000E+00  0.00000000E+00
  0.00000000E+00  0.00000000E+00  0.00000000E+00
  0.00000000E+00  0.00000000E+00  0.00000000E+00
  0.00000000E+00  0.00000000E+00  0.00000000E+00
