 H  C  O Cu                             
   1.00000000000000     
    10.2710469276006560    0.0000000000000000    0.0000000000000006
     2.5677617319001635    6.2897060242006209    0.0000000000000005
     0.0000000000000000    0.0000000000000000   30.0000000000000000
   H    C    O    Cu
     2     2     2    48
Selective dynamics
Direct
  0.4345445481023904  0.0005993845004150  0.2821550266074061   T   T   T
  0.5654526650558649  0.9994120582621140  0.7178439685321147   T   T   T
  0.6070316820631975  0.8368165347415540  0.7030267898910365   T   T   T
  0.3929573591016979  0.1631943926674167  0.2969703548386894   T   T   T
  0.3534536192766405  0.3164968833190804  0.2721222539547087   T   T   T
  0.6465246103204332  0.6835231412419160  0.7278766706219931   T   T   T
  0.1451640241941734  0.1680057268391691  0.3654251584438713   T   T   T
  0.6448975347296672  0.1688656089140462  0.3655174300660531   T   T   T
  0.4791717397979928  0.8326295796821193  0.4118909562858118   T   T   T
  0.7292712671115933  0.8314734910924970  0.4116974069060843   T   T   T
  0.8950477207445238  0.1689074669321776  0.3656662759230775   T   T   T
  0.3949987053647818  0.1677103491706894  0.3626138799408822   T   T   T
  0.6868719272876338  0.5011553044855366  0.3879463157067091   T   T   T
  0.9369843592140922  0.5009421486513301  0.3880189340612336   T   T   T
  0.1863222043228187  0.5016300393433049  0.3887827234640910   T   T   T
  0.4371884750634863  0.5014206901052245  0.3888266952841248   T   T   T
  0.3125013520641673  0.4999969479653643  0.4629303028390979   F   F   F
  0.5625013520641673  0.4999969479653643  0.4629303028390979   F   F   F
  0.0625013520641673  0.4999969479653643  0.4629303028390979   F   F   F
  0.8125013520641673  0.4999969479653643  0.4629303028390979   F   F   F
  0.3541680187308316  0.8333302812987000  0.4876386016245533   F   F   F
  0.1041680187308316  0.8333302812987000  0.4876386016245533   F   F   F
  0.8541680187308316  0.8333302812987000  0.4876386016245533   F   F   F
  0.6041680187308316  0.8333302812987000  0.4876386016245533   F   F   F
  0.8958346853975030  0.1666636146320286  0.5123469004100087   F   F   F
  0.6458346853975030  0.1666636146320286  0.5123469004100087   F   F   F
  0.2291857092728262  0.8315790470249690  0.4114702189771203   T   T   T
  0.9793571833365170  0.8316974160315120  0.4113709304409857   T   T   T
  0.2708346853975030  0.1666636146320286  0.4382220040536424   F   F   F
  0.5208346853975030  0.1666636146320286  0.4382220040536424   F   F   F
  0.0208346853975030  0.1666636146320286  0.4382220040536424   F   F   F
  0.7708346853975030  0.1666636146320286  0.4382220040536424   F   F   F
  0.6875013520641673  0.4999969479653643  0.5370551991954642   F   F   F
  0.9375013520641673  0.4999969479653643  0.5370551991954642   F   F   F
  0.1875013520641673  0.4999969479653643  0.5370551991954642   F   F   F
  0.4375013520641673  0.4999969479653643  0.5370551991954642   F   F   F
  0.3958346853975030  0.1666636146320286  0.5123469004100087   F   F   F
  0.1458346853975030  0.1666636146320286  0.5123469004100087   F   F   F
  0.4791680187308316  0.8333302812987000  0.5617634979809196   F   F   F
  0.7291680187308316  0.8333302812987000  0.5617634979809196   F   F   F
  0.8136755061369993  0.4983714283036139  0.6112038554129827   T   T   T
  0.5628125763450917  0.4985791004488817  0.6111599739265603   T   T   T
  0.9791680187308316  0.8333302812987000  0.5617634979809196   F   F   F
  0.2291680187308316  0.8333302812987000  0.5617634979809196   F   F   F
  0.5208339409429505  0.1673567311508281  0.5880962606653085   T   T   T
  0.2707316282205671  0.1685197952803196  0.5882869519376293   T   T   T
  0.0206432336486396  0.1682993619635015  0.5886135328711943   T   T   T
  0.7708167640613409  0.1684175607484837  0.5885145353351722   T   T   T
  0.3551030573569317  0.8311350052167966  0.6344696792574088   T   T   T
  0.1049520407127029  0.8310925574039291  0.6343202914632678   T   T   T
  0.8548324277936984  0.8319945407802816  0.6345624583866437   T   T   T
  0.6050013212354507  0.8322901480014140  0.6373807325597598   T   T   T
  0.0630161358495933  0.4990562575748638  0.6119671726589466   T   T   T
  0.3131293063856774  0.4988432085788307  0.6120399122329121   T   T   T
 
  0.00000000E+00  0.00000000E+00  0.00000000E+00
  0.00000000E+00  0.00000000E+00  0.00000000E+00
  0.00000000E+00  0.00000000E+00  0.00000000E+00
  0.00000000E+00  0.00000000E+00  0.00000000E+00
  0.00000000E+00  0.00000000E+00  0.00000000E+00
  0.00000000E+00  0.00000000E+00  0.00000000E+00
  0.00000000E+00  0.00000000E+00  0.00000000E+00
  0.00000000E+00  0.00000000E+00  0.00000000E+00
  0.00000000E+00  0.00000000E+00  0.00000000E+00
  0.00000000E+00  0.00000000E+00  0.00000000E+00
  0.00000000E+00  0.00000000E+00  0.00000000E+00
  0.00000000E+00  0.00000000E+00  0.00000000E+00
  0.00000000E+00  0.00000000E+00  0.00000000E+00
  0.00000000E+00  0.00000000E+00  0.00000000E+00
  0.00000000E+00  0.00000000E+00  0.00000000E+00
  0.00000000E+00  0.00000000E+00  0.00000000E+00
  0.00000000E+00  0.00000000E+00  0.00000000E+00
  0.00000000E+00  0.00000000E+00  0.00000000E+00
  0.00000000E+00  0.00000000E+00  0.00000000E+00
  0.00000000E+00  0.00000000E+00  0.00000000E+00
  0.00000000E+00  0.00000000E+00  0.00000000E+00
  0.00000000E+00  0.00000000E+00  0.00000000E+00
  0.00000000E+00  0.00000000E+00  0.00000000E+00
  0.00000000E+00  0.00000000E+00  0.00000000E+00
  0.00000000E+00  0.00000000E+00  0.00000000E+00
  0.00000000E+00  0.00000000E+00  0.00000000E+00
  0.00000000E+00  0.00000000E+00  0.00000000E+00
  0.00000000E+00  0.00000000E+00  0.00000000E+00
  0.00000000E+00  0.00000000E+00  0.00000000E+00
  0.00000000E+00  0.00000000E+00  0.00000000E+00
  0.00000000E+00  0.00000000E+00  0.00000000E+00
  0.00000000E+00  0.00000000E+00  0.00000000E+00
  0.00000000E+00  0.00000000E+00  0.00000000E+00
  0.00000000E+00  0.00000000E+00  0.00000000E+00
  0.00000000E+00  0.00000000E+00  0.00000000E+00
  0.00000000E+00  0.00000000E+00  0.00000000E+00
  0.00000000E+00  0.00000000E+00  0.00000000E+00
  0.00000000E+00  0.00000000E+00  0.00000000E+00
  0.00000000E+00  0.00000000E+00  0.00000000E+00
  0.00000000E+00  0.00000000E+00  0.00000000E+00
  0.00000000E+00  0.00000000E+00  0.00000000E+00
  0.00000000E+00  0.00000000E+00  0.00000000E+00
  0.00000000E+00  0.00000000E+00  0.00000000E+00
  0.00000000E+00  0.00000000E+00  0.00000000E+00
  0.00000000E+00  0.00000000E+00  0.00000000E+00
  0.00000000E+00  0.00000000E+00  0.00000000E+00
  0.00000000E+00  0.00000000E+00  0.00000000E+00
  0.00000000E+00  0.00000000E+00  0.00000000E+00
  0.00000000E+00  0.00000000E+00  0.00000000E+00
  0.00000000E+00  0.00000000E+00  0.00000000E+00
  0.00000000E+00  0.00000000E+00  0.00000000E+00
  0.00000000E+00  0.00000000E+00  0.00000000E+00
  0.00000000E+00  0.00000000E+00  0.00000000E+00
  0.00000000E+00  0.00000000E+00  0.00000000E+00
