 C  O Cu                                
   1.00000000000000     
    10.2710469276006560    0.0000000000000000    0.0000000000000006
     2.5677617319001635    6.2897060242006209    0.0000000000000005
     0.0000000000000000    0.0000000000000000   32.6149543968023465
   C    O    Cu
     4     4    48
Selective dynamics
Direct
  0.1119457169355138  0.1555377913723998  0.3180736683989586   T   T   T
  0.4303932285725527  0.1547999899087262  0.3171661871171275   T   T   T
  0.5851473722452409  0.8421694362239915  0.6823780015693924   T   T   T
  0.9023996133686962  0.8417380297347012  0.6829735375006064   T   T   T
  0.0919162961340510  0.1660341000112740  0.2829144925691984   T   T   T
  0.4328238133778358  0.1658375179104422  0.2816559547234708   T   T   T
  0.5730071377843574  0.8351752180434322  0.7177066717614122   T   T   T
  0.9139415455887502  0.8342177416436691  0.7184089900926974   T   T   T
  0.1575523878230903  0.1624493810260121  0.3737467779807686   T   T   T
  0.4123794142800177  0.1627284261323507  0.3741688755872795   T   T   T
  0.6602375839403377  0.1698684065855552  0.3763593549565937   T   T   T
  0.9060945892721501  0.1687672224236409  0.3763908750737909   T   T   T
  0.7004069399826859  0.5016851590586408  0.3967367832500525   T   T   T
  0.9494041279623728  0.5018998727502385  0.3976074336630290   T   T   T
  0.2010760477684614  0.4972297877710893  0.3977016485797423   T   T   T
  0.4507321624598673  0.5012439588898426  0.3971033675674284   T   T   T
  0.3268102038023102  0.4967576674194092  0.4659090909090935   F   F   F
  0.0768102038023102  0.4967576674194092  0.4659090909090935   F   F   F
  0.5768102038023102  0.4967576674194092  0.4659090909090935   F   F   F
  0.8268102038023102  0.4967576674194092  0.4659090909090935   F   F   F
  0.3684768704689745  0.8300910007527449  0.4886363636363669   F   F   F
  0.1184768704689745  0.8300910007527449  0.4886363636363669   F   F   F
  0.8684768704689745  0.8300910007527449  0.4886363636363669   F   F   F
  0.6184768704689745  0.8300910007527449  0.4886363636363669   F   F   F
  0.2435335197245028  0.8307077144033376  0.4186220753818102   T   T   T
  0.7424768171750777  0.8315749752668090  0.4177427791349875   T   T   T
  0.9933668351377379  0.8306331043562770  0.4180824112829698   T   T   T
  0.4926365009777673  0.8305437672020478  0.4185852999007715   T   T   T
  0.2851435371356459  0.1634243340860735  0.4431818181818201   F   F   F
  0.5351435371356459  0.1634243340860735  0.4431818181818201   F   F   F
  0.0351435371356459  0.1634243340860735  0.4431818181818201   F   F   F
  0.7851435371356459  0.1634243340860735  0.4431818181818201   F   F   F
  0.7018102038023102  0.4967576674194092  0.5340909090909065   F   F   F
  0.9518102038023102  0.4967576674194092  0.5340909090909065   F   F   F
  0.2018102038023102  0.4967576674194092  0.5340909090909065   F   F   F
  0.4518102038023102  0.4967576674194092  0.5340909090909065   F   F   F
  0.6601435371356459  0.1634243340860735  0.5113636363636331   F   F   F
  0.4101435371356459  0.1634243340860735  0.5113636363636331   F   F   F
  0.1601435371356459  0.1634243340860735  0.5113636363636331   F   F   F
  0.9101435371356459  0.1634243340860735  0.5113636363636331   F   F   F
  0.4934768704689745  0.8300910007527449  0.5568181818181799   F   F   F
  0.7434768704689745  0.8300910007527449  0.5568181818181799   F   F   F
  0.9934768704689745  0.8300910007527449  0.5568181818181799   F   F   F
  0.2434768704689745  0.8300910007527449  0.5568181818181799   F   F   F
  0.5361460783155908  0.1627531463479079  0.5813708548794313   T   T   T
  0.2859585929162953  0.1622034531657880  0.5822349642303235   T   T   T
  0.0352170539962487  0.1632848181033750  0.5819854729995267   T   T   T
  0.7852743688134969  0.1628213768333730  0.5813962269836841   T   T   T
  0.3686391563869793  0.8236249119944942  0.6236975874963170   T   T   T
  0.1228215259022056  0.8249690310748377  0.6234588924699477   T   T   T
  0.8709967806147679  0.8314367732528742  0.6264111989076835   T   T   T
  0.6160561284175714  0.8307326379753055  0.6258114963232164   T   T   T
  0.5781522274404177  0.4918536284633763  0.6028728368686205   T   T   T
  0.8276272127634752  0.4965459072470606  0.6023276573754557   T   T   T
  0.0790414769129500  0.4924500077666731  0.6024709707821719   T   T   T
  0.3282773317087885  0.4918842238669350  0.6032652733645484   T   T   T
 
  0.00000000E+00  0.00000000E+00  0.00000000E+00
  0.00000000E+00  0.00000000E+00  0.00000000E+00
  0.00000000E+00  0.00000000E+00  0.00000000E+00
  0.00000000E+00  0.00000000E+00  0.00000000E+00
  0.00000000E+00  0.00000000E+00  0.00000000E+00
  0.00000000E+00  0.00000000E+00  0.00000000E+00
  0.00000000E+00  0.00000000E+00  0.00000000E+00
  0.00000000E+00  0.00000000E+00  0.00000000E+00
  0.00000000E+00  0.00000000E+00  0.00000000E+00
  0.00000000E+00  0.00000000E+00  0.00000000E+00
  0.00000000E+00  0.00000000E+00  0.00000000E+00
  0.00000000E+00  0.00000000E+00  0.00000000E+00
  0.00000000E+00  0.00000000E+00  0.00000000E+00
  0.00000000E+00  0.00000000E+00  0.00000000E+00
  0.00000000E+00  0.00000000E+00  0.00000000E+00
  0.00000000E+00  0.00000000E+00  0.00000000E+00
  0.00000000E+00  0.00000000E+00  0.00000000E+00
  0.00000000E+00  0.00000000E+00  0.00000000E+00
  0.00000000E+00  0.00000000E+00  0.00000000E+00
  0.00000000E+00  0.00000000E+00  0.00000000E+00
  0.00000000E+00  0.00000000E+00  0.00000000E+00
  0.00000000E+00  0.00000000E+00  0.00000000E+00
  0.00000000E+00  0.00000000E+00  0.00000000E+00
  0.00000000E+00  0.00000000E+00  0.00000000E+00
  0.00000000E+00  0.00000000E+00  0.00000000E+00
  0.00000000E+00  0.00000000E+00  0.00000000E+00
  0.00000000E+00  0.00000000E+00  0.00000000E+00
  0.00000000E+00  0.00000000E+00  0.00000000E+00
  0.00000000E+00  0.00000000E+00  0.00000000E+00
  0.00000000E+00  0.00000000E+00  0.00000000E+00
  0.00000000E+00  0.00000000E+00  0.00000000E+00
  0.00000000E+00  0.00000000E+00  0.00000000E+00
  0.00000000E+00  0.00000000E+00  0.00000000E+00
  0.00000000E+00  0.00000000E+00  0.00000000E+00
  0.00000000E+00  0.00000000E+00  0.00000000E+00
  0.00000000E+00  0.00000000E+00  0.00000000E+00
  0.00000000E+00  0.00000000E+00  0.00000000E+00
  0.00000000E+00  0.00000000E+00  0.00000000E+00
  0.00000000E+00  0.00000000E+00  0.00000000E+00
  0.00000000E+00  0.00000000E+00  0.00000000E+00
  0.00000000E+00  0.00000000E+00  0.00000000E+00
  0.00000000E+00  0.00000000E+00  0.00000000E+00
  0.00000000E+00  0.00000000E+00  0.00000000E+00
  0.00000000E+00  0.00000000E+00  0.00000000E+00
  0.00000000E+00  0.00000000E+00  0.00000000E+00
  0.00000000E+00  0.00000000E+00  0.00000000E+00
  0.00000000E+00  0.00000000E+00  0.00000000E+00
  0.00000000E+00  0.00000000E+00  0.00000000E+00
  0.00000000E+00  0.00000000E+00  0.00000000E+00
  0.00000000E+00  0.00000000E+00  0.00000000E+00
  0.00000000E+00  0.00000000E+00  0.00000000E+00
  0.00000000E+00  0.00000000E+00  0.00000000E+00
  0.00000000E+00  0.00000000E+00  0.00000000E+00
  0.00000000E+00  0.00000000E+00  0.00000000E+00
  0.00000000E+00  0.00000000E+00  0.00000000E+00
  0.00000000E+00  0.00000000E+00  0.00000000E+00
