 H  C Cu                                
   1.00000000000000     
    10.2710469276006560    0.0000000000000000    0.0000000000000006
     2.5677617319001635    6.2897060242006209    0.0000000000000005
     0.0000000000000000    0.0000000000000000   30.0000000000000000
   H    C    Cu
     2     2    48
Selective dynamics
Direct
  0.2081699464528169  0.3770855388995948  0.2983907241536301   T   T   T
  0.7877153222434694  0.6297566092677070  0.7014851442483341   T   T   T
  0.2222650922790132  0.3357311764841663  0.3337645368245318   T   T   T
  0.7753006566073343  0.6677019660179713  0.6659292289717105   T   T   T
  0.1430697370322415  0.1574238291075881  0.3632392739171700   T   T   T
  0.3962211217631988  0.1668758459431975  0.3626191397451268   T   T   T
  0.6444075175969382  0.1653767048429185  0.3650661041416304   T   T   T
  0.8943983426401647  0.1651229590739100  0.3650851044631614   T   T   T
  0.2295722072701067  0.8329375760913137  0.4123033679086009   T   T   T
  0.7295978000486780  0.8315566260916109  0.4119777266393687   T   T   T
  0.9791935127756068  0.8339733074086477  0.4122336844509756   T   T   T
  0.4793549494517867  0.8344839994194263  0.4115386789487176   T   T   T
  0.6869273190040949  0.5003919970975986  0.3882122569630815   T   T   T
  0.9376825461943624  0.5005801323385868  0.3873465059068088   T   T   T
  0.1829354946933094  0.5177544366243761  0.3845270627905335   T   T   T
  0.4369776685714168  0.5021689377137675  0.3878662371501733   T   T   T
  0.3125227806840485  0.4999886977673142  0.4626631437468376   F   F   F
  0.0625227806840485  0.4999886977673142  0.4626631437468376   F   F   F
  0.5625227806840485  0.4999886977673142  0.4626631437468376   F   F   F
  0.8125227806840485  0.4999886977673142  0.4626631437468376   F   F   F
  0.3541894473507128  0.8333220311006500  0.4873714425322930   F   F   F
  0.1041894473507128  0.8333220311006500  0.4873714425322930   F   F   F
  0.8541894473507128  0.8333220311006500  0.4873714425322930   F   F   F
  0.6041894473507128  0.8333220311006500  0.4873714425322930   F   F   F
  0.8958561140173842  0.1666553644339785  0.5120797413177414   F   F   F
  0.1458561140173842  0.1666553644339785  0.5120797413177414   F   F   F
  0.3958561140173842  0.1666553644339785  0.5120797413177414   F   F   F
  0.6458561140173842  0.1666553644339785  0.5120797413177414   F   F   F
  0.2708561140173842  0.1666553644339785  0.4379548449613822   F   F   F
  0.5208561140173842  0.1666553644339785  0.4379548449613822   F   F   F
  0.0208561140173842  0.1666553644339785  0.4379548449613822   F   F   F
  0.7708561140173842  0.1666553644339785  0.4379548449613822   F   F   F
  0.6875227806840485  0.4999886977673142  0.5367880401031968   F   F   F
  0.9375227806840485  0.4999886977673142  0.5367880401031968   F   F   F
  0.1875227806840485  0.4999886977673142  0.5367880401031968   F   F   F
  0.4375227806840485  0.4999886977673142  0.5367880401031968   F   F   F
  0.4791894473507128  0.8333220311006500  0.5614963388886594   F   F   F
  0.7291894473507128  0.8333220311006500  0.5614963388886594   F   F   F
  0.9791894473507128  0.8333220311006500  0.5614963388886594   F   F   F
  0.2291894473507128  0.8333220311006500  0.5614963388886594   F   F   F
  0.3132328311091556  0.4999940907437647  0.6112917847607912   T   T   T
  0.0626652649238614  0.4996830771258820  0.6120121752197066   T   T   T
  0.8172400684078579  0.4831089684013308  0.6154472465675728   T   T   T
  0.5632459534711456  0.4985830297046548  0.6117081743182032   T   T   T
  0.5207619889327271  0.1665240217443554  0.5877822978062305   T   T   T
  0.2706551176320027  0.1685577135955751  0.5874898433364749   T   T   T
  0.0207485557943543  0.1666105608897574  0.5872562706513766   T   T   T
  0.7706761622561517  0.1676036598659877  0.5872677671407984   T   T   T
  0.3552524209455436  0.8350775836000119  0.6344190570819961   T   T   T
  0.1054261847892049  0.8354031554401518  0.6343496115385077   T   T   T
  0.8569173734352238  0.8425161998660472  0.6362505597945005   T   T   T
  0.6025224891009668  0.8358840371711254  0.6366562788938974   T   T   T
 
  0.00000000E+00  0.00000000E+00  0.00000000E+00
  0.00000000E+00  0.00000000E+00  0.00000000E+00
  0.00000000E+00  0.00000000E+00  0.00000000E+00
  0.00000000E+00  0.00000000E+00  0.00000000E+00
  0.00000000E+00  0.00000000E+00  0.00000000E+00
  0.00000000E+00  0.00000000E+00  0.00000000E+00
  0.00000000E+00  0.00000000E+00  0.00000000E+00
  0.00000000E+00  0.00000000E+00  0.00000000E+00
  0.00000000E+00  0.00000000E+00  0.00000000E+00
  0.00000000E+00  0.00000000E+00  0.00000000E+00
  0.00000000E+00  0.00000000E+00  0.00000000E+00
  0.00000000E+00  0.00000000E+00  0.00000000E+00
  0.00000000E+00  0.00000000E+00  0.00000000E+00
  0.00000000E+00  0.00000000E+00  0.00000000E+00
  0.00000000E+00  0.00000000E+00  0.00000000E+00
  0.00000000E+00  0.00000000E+00  0.00000000E+00
  0.00000000E+00  0.00000000E+00  0.00000000E+00
  0.00000000E+00  0.00000000E+00  0.00000000E+00
  0.00000000E+00  0.00000000E+00  0.00000000E+00
  0.00000000E+00  0.00000000E+00  0.00000000E+00
  0.00000000E+00  0.00000000E+00  0.00000000E+00
  0.00000000E+00  0.00000000E+00  0.00000000E+00
  0.00000000E+00  0.00000000E+00  0.00000000E+00
  0.00000000E+00  0.00000000E+00  0.00000000E+00
  0.00000000E+00  0.00000000E+00  0.00000000E+00
  0.00000000E+00  0.00000000E+00  0.00000000E+00
  0.00000000E+00  0.00000000E+00  0.00000000E+00
  0.00000000E+00  0.00000000E+00  0.00000000E+00
  0.00000000E+00  0.00000000E+00  0.00000000E+00
  0.00000000E+00  0.00000000E+00  0.00000000E+00
  0.00000000E+00  0.00000000E+00  0.00000000E+00
  0.00000000E+00  0.00000000E+00  0.00000000E+00
  0.00000000E+00  0.00000000E+00  0.00000000E+00
  0.00000000E+00  0.00000000E+00  0.00000000E+00
  0.00000000E+00  0.00000000E+00  0.00000000E+00
  0.00000000E+00  0.00000000E+00  0.00000000E+00
  0.00000000E+00  0.00000000E+00  0.00000000E+00
  0.00000000E+00  0.00000000E+00  0.00000000E+00
  0.00000000E+00  0.00000000E+00  0.00000000E+00
  0.00000000E+00  0.00000000E+00  0.00000000E+00
  0.00000000E+00  0.00000000E+00  0.00000000E+00
  0.00000000E+00  0.00000000E+00  0.00000000E+00
  0.00000000E+00  0.00000000E+00  0.00000000E+00
  0.00000000E+00  0.00000000E+00  0.00000000E+00
  0.00000000E+00  0.00000000E+00  0.00000000E+00
  0.00000000E+00  0.00000000E+00  0.00000000E+00
  0.00000000E+00  0.00000000E+00  0.00000000E+00
  0.00000000E+00  0.00000000E+00  0.00000000E+00
  0.00000000E+00  0.00000000E+00  0.00000000E+00
  0.00000000E+00  0.00000000E+00  0.00000000E+00
  0.00000000E+00  0.00000000E+00  0.00000000E+00
  0.00000000E+00  0.00000000E+00  0.00000000E+00
