 C  O Cu 
 1.0000000000000000
    10.2710469276006560    0.0000000000000000    0.0000000000000006
    -0.0000000000000006   10.2710469276006560    0.0000000000000006
     0.0000000000000000    0.0000000000000000   43.5763615943500682
 C   O   Cu 
   2   2  64
Selective dynamics
Cartesian
  5.1355234638003324  1.2838808659500820 26.3617033968219303   T   T   T
  5.1355234638003235  8.9871660616505746 17.2146581975281343   T   T   T
  5.1355234638003324  1.2838808659500820 27.4917033968219258   T   T   T
  5.1355234638003235  8.9871660616505746 16.0846581975281424   T   T   T
  3.8516425978502458  1.2838808659500820 24.5117033968219182   T   T   T
  3.8516425978502444  3.8516425978502458 24.5117033968219182   T   T   T
  1.2838808659500820  1.2838808659500820 24.5117033968219182   T   T   T
  1.2838808659500816  6.4194043297504102 24.5117033968219182   T   T   T
  1.2838808659500816  8.9871660616505729 24.5117033968219182   T   T   T
  6.4194043297504102  1.2838808659500820 24.5117033968219182   T   T   T
  7.7032851957004915  2.5677617319001640 19.0646581975281535   T   T   T
  7.7032851957004915  0.0000000000000000 19.0646581975281535   T   T   T
  5.1355234638003262  7.7032851957004915 19.0646581975281535   T   T   T
  5.1355234638003271  5.1355234638003271 19.0646581975281535   T   T   T
  5.1355234638003271  2.5677617319001640 19.0646581975281535   T   T   T
  5.1355234638003271  0.0000000000000000 19.0646581975281535   T   T   T
  2.5677617319001635  7.7032851957004915 19.0646581975281535   T   T   T
  2.5677617319001635  5.1355234638003271 19.0646581975281535   T   T   T
  6.4194043297504102  6.4194043297504102 20.8803399306260715   F   F   F
  1.2838808659500816  8.9871660616505729 20.8803399306260715   F   F   F
  3.8516425978502467  8.9871660616505729 20.8803399306260715   F   F   F
  1.2838808659500816  6.4194043297504102 20.8803399306260715   F   F   F
  3.8516425978502467  6.4194043297504102 20.8803399306260715   F   F   F
  3.8516425978502444  3.8516425978502458 20.8803399306260715   F   F   F
  8.9871660616505729  1.2838808659500820 20.8803399306260715   F   F   F
  8.9871660616505729  3.8516425978502458 20.8803399306260715   F   F   F
  8.9871660616505729  6.4194043297504102 20.8803399306260715   F   F   F
  6.4194043297504093  8.9871660616505729 20.8803399306260715   F   F   F
  8.9871660616505729  8.9871660616505729 20.8803399306260715   F   F   F
  1.2838808659500820  1.2838808659500820 20.8803399306260715   F   F   F
  3.8516425978502458  1.2838808659500820 20.8803399306260715   F   F   F
  1.2838808659500818  3.8516425978502458 20.8803399306260715   F   F   F
 -0.0000000000000001  2.5677617319001640 22.6960216637239895   F   F   F
 -0.0000000000000003  5.1355234638003271 22.6960216637239895   F   F   F
 -0.0000000000000005  7.7032851957004915 22.6960216637239895   F   F   F
  2.5677617319001640  0.0000000000000000 22.6960216637239895   F   F   F
  2.5677617319001635  5.1355234638003271 22.6960216637239895   F   F   F
  2.5677617319001640  2.5677617319001640 22.6960216637239895   F   F   F
  2.5677617319001635  7.7032851957004915 22.6960216637239895   F   F   F
  7.7032851957004915  0.0000000000000000 22.6960216637239895   F   F   F
  7.7032851957004915  2.5677617319001640 22.6960216637239895   F   F   F
  5.1355234638003271  2.5677617319001640 22.6960216637239895   F   F   F
  5.1355234638003271  5.1355234638003271 22.6960216637239895   F   F   F
  5.1355234638003271  0.0000000000000000 22.6960216637239895   F   F   F
  0.0000000000000000  0.0000000000000000 22.6960216637239895   F   F   F
  7.7032851957004915  5.1355234638003271 22.6960216637240002   F   F   F
  7.7032851957004889  7.7032851957004915 22.6960216637240002   F   F   F
  5.1355234638003262  7.7032851957004915 22.6960216637240002   F   F   F
  3.8516425978502467  8.9871660616505729 24.5117033968219182   T   T   T
  8.9871660616505729  6.4194043297504102 24.5117033968219182   T   T   T
  6.4194043297504102  6.4194043297504102 24.5117033968219182   T   T   T
  8.9871660616505729  8.9871660616505729 24.5117033968219182   T   T   T
  8.9871660616505729  3.8516425978502458 24.5117033968219182   T   T   T
  6.4194043297504093  8.9871660616505729 24.5117033968219182   T   T   T
  6.4194043297504102  3.8516425978502458 24.5117033968219182   T   T   T
  8.9871660616505729  1.2838808659500820 24.5117033968219182   T   T   T
  1.2838808659500818  3.8516425978502458 24.5117033968219182   T   T   T
  3.8516425978502467  6.4194043297504102 24.5117033968219182   T   T   T
  2.5677617319001640  2.5677617319001640 19.0646581975281535   T   T   T
  2.5677617319001640  0.0000000000000000 19.0646581975281535   T   T   T
 -0.0000000000000005  7.7032851957004915 19.0646581975281535   T   T   T
 -0.0000000000000003  5.1355234638003271 19.0646581975281535   T   T   T
 -0.0000000000000001  2.5677617319001640 19.0646581975281535   T   T   T
  0.0000000000000000  0.0000000000000000 19.0646581975281535   T   T   T
  6.4194043297504102  1.2838808659500820 20.8803399306260715   F   F   F
  6.4194043297504102  3.8516425978502458 20.8803399306260715   F   F   F
  7.7032851957004915  5.1355234638003271 19.0646581975281535   T   T   T
  7.7032851957004889  7.7032851957004915 19.0646581975281535   T   T   T
