 H  C  O Cu                             
   1.00000000000000     
    10.2710469276006560    0.0000000000000000    0.0000000000000006
     2.5677617319001635    6.2897060242006209    0.0000000000000005
     0.0000000000000000    0.0000000000000000   30.0000000000000000
   H    C    O    Cu
     4     2     2    48
Selective dynamics
Direct
  0.3264371575993478  0.4038091773392215  0.2757488593273716   T   T   T
  0.4325786890376735  0.9600915416994842  0.2870238411169640   T   T   T
  0.5677224031450866  0.0399065514504678  0.7128825548925838   T   T   T
  0.6730052915506067  0.5962926738948546  0.7242938233446174   T   T   T
  0.6047215360418411  0.8775636433980305  0.6997136677457739   T   T   T
  0.3952649913499861  0.1223515960297345  0.3002430796701268   T   T   T
  0.3609437312263640  0.2539569080191792  0.2670174199047247   T   T   T
  0.6387692665366161  0.7462006078346802  0.7329779531215119   T   T   T
  0.1455769007679894  0.1684420673216228  0.3652160347820004   T   T   T
  0.6453410795678296  0.1696095310214213  0.3652038338475008   T   T   T
  0.8953984644674711  0.1691634741791024  0.3654810927535595   T   T   T
  0.3951977374174147  0.1701924329745546  0.3631305596487779   T   T   T
  0.6871958690647302  0.5014773087733330  0.3881034150420591   T   T   T
  0.9371857109340096  0.5015079674689011  0.3881709419167798   T   T   T
  0.1862204630426387  0.5032861677820325  0.3891105689898020   T   T   T
  0.4376715800056357  0.5025209884879633  0.3891750682118846   T   T   T
  0.3125050230424478  0.4997410779376708  0.4629231309054163   F   F   F
  0.5625050230424478  0.4997410779376708  0.4629231309054163   F   F   F
  0.0625050230424478  0.4997410779376708  0.4629231309054163   F   F   F
  0.8125050230424478  0.4997410779376708  0.4629231309054163   F   F   F
  0.3541716897091121  0.8330744112710065  0.4876314296908717   F   F   F
  0.1041716897091121  0.8330744112710065  0.4876314296908717   F   F   F
  0.8541716897091121  0.8330744112710065  0.4876314296908717   F   F   F
  0.6041716897091121  0.8330744112710065  0.4876314296908717   F   F   F
  0.4796975299796845  0.8324954038031835  0.4123723095005382   T   T   T
  0.7293529908809177  0.8322110928057471  0.4116949433958227   T   T   T
  0.2291854354879472  0.8324179329234168  0.4117959785380311   T   T   T
  0.9792694535867663  0.8327561556601141  0.4115686420457644   T   T   T
  0.2708383563757835  0.1664077446043351  0.4382148321199608   F   F   F
  0.5208383563757835  0.1664077446043351  0.4382148321199608   F   F   F
  0.0208383563757835  0.1664077446043351  0.4382148321199608   F   F   F
  0.7708383563757835  0.1664077446043351  0.4382148321199608   F   F   F
  0.6875050230424478  0.4997410779376708  0.5370480272617897   F   F   F
  0.9375050230424478  0.4997410779376708  0.5370480272617897   F   F   F
  0.1875050230424478  0.4997410779376708  0.5370480272617897   F   F   F
  0.4375050230424478  0.4997410779376708  0.5370480272617897   F   F   F
  0.3958383563757835  0.1664077446043351  0.5123397284763342   F   F   F
  0.1458383563757835  0.1664077446043351  0.5123397284763342   F   F   F
  0.6458383563757835  0.1664077446043351  0.5123397284763342   F   F   F
  0.8958383563757835  0.1664077446043351  0.5123397284763342   F   F   F
  0.4791716897091121  0.8330744112710065  0.5617563260472451   F   F   F
  0.7291716897091121  0.8330744112710065  0.5617563260472451   F   F   F
  0.9791716897091121  0.8330744112710065  0.5617563260472451   F   F   F
  0.2291716897091121  0.8330744112710065  0.5617563260472451   F   F   F
  0.5203046244677922  0.1670142034469784  0.5875967644081171   T   T   T
  0.2706529954121193  0.1673046902978686  0.5882782733751506   T   T   T
  0.0207451233520708  0.1667572395373065  0.5884005318751490   T   T   T
  0.7708288171687880  0.1670722520062302  0.5881759943596734   T   T   T
  0.3546617044859456  0.8299025899108085  0.6347674409658738   T   T   T
  0.1045908855938417  0.8303765111180493  0.6344918379698845   T   T   T
  0.8544213861567649  0.8310580981005568  0.6347591849007032   T   T   T
  0.6047936755087621  0.8293128969739750  0.6368418596562940   T   T   T
  0.0628193892930647  0.4980214553632770  0.6118040747535748   T   T   T
  0.3128031885075230  0.4980486907388928  0.6118713996753991   T   T   T
  0.5623343479489361  0.4969765154535851  0.6107979715063230   T   T   T
  0.8137801098311549  0.4962163066736173  0.6108649020647099   T   T   T
 
  0.00000000E+00  0.00000000E+00  0.00000000E+00
  0.00000000E+00  0.00000000E+00  0.00000000E+00
  0.00000000E+00  0.00000000E+00  0.00000000E+00
  0.00000000E+00  0.00000000E+00  0.00000000E+00
  0.00000000E+00  0.00000000E+00  0.00000000E+00
  0.00000000E+00  0.00000000E+00  0.00000000E+00
  0.00000000E+00  0.00000000E+00  0.00000000E+00
  0.00000000E+00  0.00000000E+00  0.00000000E+00
  0.00000000E+00  0.00000000E+00  0.00000000E+00
  0.00000000E+00  0.00000000E+00  0.00000000E+00
  0.00000000E+00  0.00000000E+00  0.00000000E+00
  0.00000000E+00  0.00000000E+00  0.00000000E+00
  0.00000000E+00  0.00000000E+00  0.00000000E+00
  0.00000000E+00  0.00000000E+00  0.00000000E+00
  0.00000000E+00  0.00000000E+00  0.00000000E+00
  0.00000000E+00  0.00000000E+00  0.00000000E+00
  0.00000000E+00  0.00000000E+00  0.00000000E+00
  0.00000000E+00  0.00000000E+00  0.00000000E+00
  0.00000000E+00  0.00000000E+00  0.00000000E+00
  0.00000000E+00  0.00000000E+00  0.00000000E+00
  0.00000000E+00  0.00000000E+00  0.00000000E+00
  0.00000000E+00  0.00000000E+00  0.00000000E+00
  0.00000000E+00  0.00000000E+00  0.00000000E+00
  0.00000000E+00  0.00000000E+00  0.00000000E+00
  0.00000000E+00  0.00000000E+00  0.00000000E+00
  0.00000000E+00  0.00000000E+00  0.00000000E+00
  0.00000000E+00  0.00000000E+00  0.00000000E+00
  0.00000000E+00  0.00000000E+00  0.00000000E+00
  0.00000000E+00  0.00000000E+00  0.00000000E+00
  0.00000000E+00  0.00000000E+00  0.00000000E+00
  0.00000000E+00  0.00000000E+00  0.00000000E+00
  0.00000000E+00  0.00000000E+00  0.00000000E+00
  0.00000000E+00  0.00000000E+00  0.00000000E+00
  0.00000000E+00  0.00000000E+00  0.00000000E+00
  0.00000000E+00  0.00000000E+00  0.00000000E+00
  0.00000000E+00  0.00000000E+00  0.00000000E+00
  0.00000000E+00  0.00000000E+00  0.00000000E+00
  0.00000000E+00  0.00000000E+00  0.00000000E+00
  0.00000000E+00  0.00000000E+00  0.00000000E+00
  0.00000000E+00  0.00000000E+00  0.00000000E+00
  0.00000000E+00  0.00000000E+00  0.00000000E+00
  0.00000000E+00  0.00000000E+00  0.00000000E+00
  0.00000000E+00  0.00000000E+00  0.00000000E+00
  0.00000000E+00  0.00000000E+00  0.00000000E+00
  0.00000000E+00  0.00000000E+00  0.00000000E+00
  0.00000000E+00  0.00000000E+00  0.00000000E+00
  0.00000000E+00  0.00000000E+00  0.00000000E+00
  0.00000000E+00  0.00000000E+00  0.00000000E+00
  0.00000000E+00  0.00000000E+00  0.00000000E+00
  0.00000000E+00  0.00000000E+00  0.00000000E+00
  0.00000000E+00  0.00000000E+00  0.00000000E+00
  0.00000000E+00  0.00000000E+00  0.00000000E+00
  0.00000000E+00  0.00000000E+00  0.00000000E+00
  0.00000000E+00  0.00000000E+00  0.00000000E+00
  0.00000000E+00  0.00000000E+00  0.00000000E+00
  0.00000000E+00  0.00000000E+00  0.00000000E+00
