Cu48 C2 O2                              
   1.00000000000000     
    10.2710469276006560    0.0000000000000000    0.0000000000000006
     2.5677617319001635    6.2897060242006209    0.0000000000000005
     0.0000000000000000    0.0000000000000000   32.6149543968023465
   Cu   O    C 
    48     2     2
Selective dynamics
Direct
  0.4934768704689745  0.8300910007527449  0.5568181818181799   F   F   F
  0.7434768704689745  0.8300910007527449  0.5568181818181799   F   F   F
  0.9934768704689745  0.8300910007527449  0.5568181818181799   F   F   F
  0.2434768704689745  0.8300910007527449  0.5568181818181799   F   F   F
  0.5771326463158579  0.4947304623119697  0.6028353814636213   T   T   T
  0.8281428635849326  0.4938383993839824  0.6028010960260727   T   T   T
  0.0782473436051713  0.4942740353965749  0.6035752667823968   T   T   T
  0.3274267994420041  0.4948551174229934  0.6036131556968015   T   T   T
  0.7846841126505089  0.1644907218113176  0.5814650159388501   T   T   T
  0.0357438169987029  0.1644005310202124  0.5815201214265556   T   T   T
  0.2853729291826149  0.1653860759024300  0.5816762900697473   T   T   T
  0.5348824350368133  0.1650045894280273  0.5810773308881324   T   T   T
  0.6187039203488991  0.8315530267949641  0.6256575868787384   T   T   T
  0.8714520081583804  0.8275182531439812  0.6233654334016278   T   T   T
  0.1194950811613604  0.8275581448313730  0.6241218502712018   T   T   T
  0.3670460841851584  0.8277157863755900  0.6236026747289510   T   T   T
  0.8268102038023102  0.4967576674194092  0.4659090909090935   F   F   F
  0.0768102038023102  0.4967576674194092  0.4659090909090935   F   F   F
  0.3268102038023102  0.4967576674194092  0.4659090909090935   F   F   F
  0.5768102038023102  0.4967576674194092  0.4659090909090935   F   F   F
  0.9101435371356459  0.1634243340860735  0.5113636363636331   F   F   F
  0.1601435371356459  0.1634243340860735  0.5113636363636331   F   F   F
  0.4101435371356459  0.1634243340860735  0.5113636363636331   F   F   F
  0.6601435371356459  0.1634243340860735  0.5113636363636331   F   F   F
  0.6184768704689745  0.8300910007527449  0.4886363636363669   F   F   F
  0.8684768704689745  0.8300910007527449  0.4886363636363669   F   F   F
  0.1184768704689745  0.8300910007527449  0.4886363636363669   F   F   F
  0.3684768704689745  0.8300910007527449  0.4886363636363669   F   F   F
  0.7018102038023102  0.4967576674194092  0.5340909090909065   F   F   F
  0.9518102038023102  0.4967576674194092  0.5340909090909065   F   F   F
  0.2018102038023102  0.4967576674194092  0.5340909090909065   F   F   F
  0.4518102038023102  0.4967576674194092  0.5340909090909065   F   F   F
  0.6615502737017394  0.1658112865044254  0.3763984763792450   T   T   T
  0.9091683790706812  0.1658954422020561  0.3758845072023201   T   T   T
  0.1572065206241141  0.1659417749375016  0.3766387235279856   T   T   T
  0.4099146282220879  0.1619616149864505  0.3743468260454850   T   T   T
  0.7432203042195812  0.8281623292797898  0.4183278180975942   T   T   T
  0.9928412459276668  0.8291245766381441  0.4184858178947378   T   T   T
  0.2439499542679932  0.8290039469732453  0.4185428819377809   T   T   T
  0.4937416324913118  0.8285245135005385  0.4189165449028093   T   T   T
  0.7012564914045440  0.4986280952999630  0.3963878802159714   T   T   T
  0.9504025170428182  0.4992170737960219  0.3964229464690973   T   T   T
  0.2004967005622170  0.4996534195578671  0.3972107519916150   T   T   T
  0.4515447311404309  0.4987434219044189  0.3971754297241007   T   T   T
  0.5351435371356459  0.1634243340860735  0.4431818181818201   F   F   F
  0.7851435371356459  0.1634243340860735  0.4431818181818201   F   F   F
  0.0351435371356459  0.1634243340860735  0.4431818181818201   F   F   F
  0.2851435371356459  0.1634243340860735  0.4431818181818201   F   F   F
  0.6187840763948997  0.8287637557224549  0.7185609053368971   T   T   T
  0.4098275251677170  0.1647202000825493  0.2814419053023336   T   T   T
  0.6166636996221124  0.8378277022692167  0.6832610953907559   T   T   T
  0.4119341039618671  0.1557045678665006  0.3167483547694647   T   T   T
 
  0.00000000E+00  0.00000000E+00  0.00000000E+00
  0.00000000E+00  0.00000000E+00  0.00000000E+00
  0.00000000E+00  0.00000000E+00  0.00000000E+00
  0.00000000E+00  0.00000000E+00  0.00000000E+00
  0.00000000E+00  0.00000000E+00  0.00000000E+00
  0.00000000E+00  0.00000000E+00  0.00000000E+00
  0.00000000E+00  0.00000000E+00  0.00000000E+00
  0.00000000E+00  0.00000000E+00  0.00000000E+00
  0.00000000E+00  0.00000000E+00  0.00000000E+00
  0.00000000E+00  0.00000000E+00  0.00000000E+00
  0.00000000E+00  0.00000000E+00  0.00000000E+00
  0.00000000E+00  0.00000000E+00  0.00000000E+00
  0.00000000E+00  0.00000000E+00  0.00000000E+00
  0.00000000E+00  0.00000000E+00  0.00000000E+00
  0.00000000E+00  0.00000000E+00  0.00000000E+00
  0.00000000E+00  0.00000000E+00  0.00000000E+00
  0.00000000E+00  0.00000000E+00  0.00000000E+00
  0.00000000E+00  0.00000000E+00  0.00000000E+00
  0.00000000E+00  0.00000000E+00  0.00000000E+00
  0.00000000E+00  0.00000000E+00  0.00000000E+00
  0.00000000E+00  0.00000000E+00  0.00000000E+00
  0.00000000E+00  0.00000000E+00  0.00000000E+00
  0.00000000E+00  0.00000000E+00  0.00000000E+00
  0.00000000E+00  0.00000000E+00  0.00000000E+00
  0.00000000E+00  0.00000000E+00  0.00000000E+00
  0.00000000E+00  0.00000000E+00  0.00000000E+00
  0.00000000E+00  0.00000000E+00  0.00000000E+00
  0.00000000E+00  0.00000000E+00  0.00000000E+00
  0.00000000E+00  0.00000000E+00  0.00000000E+00
  0.00000000E+00  0.00000000E+00  0.00000000E+00
  0.00000000E+00  0.00000000E+00  0.00000000E+00
  0.00000000E+00  0.00000000E+00  0.00000000E+00
  0.00000000E+00  0.00000000E+00  0.00000000E+00
  0.00000000E+00  0.00000000E+00  0.00000000E+00
  0.00000000E+00  0.00000000E+00  0.00000000E+00
  0.00000000E+00  0.00000000E+00  0.00000000E+00
  0.00000000E+00  0.00000000E+00  0.00000000E+00
  0.00000000E+00  0.00000000E+00  0.00000000E+00
  0.00000000E+00  0.00000000E+00  0.00000000E+00
  0.00000000E+00  0.00000000E+00  0.00000000E+00
  0.00000000E+00  0.00000000E+00  0.00000000E+00
  0.00000000E+00  0.00000000E+00  0.00000000E+00
  0.00000000E+00  0.00000000E+00  0.00000000E+00
  0.00000000E+00  0.00000000E+00  0.00000000E+00
  0.00000000E+00  0.00000000E+00  0.00000000E+00
  0.00000000E+00  0.00000000E+00  0.00000000E+00
  0.00000000E+00  0.00000000E+00  0.00000000E+00
  0.00000000E+00  0.00000000E+00  0.00000000E+00
  0.00000000E+00  0.00000000E+00  0.00000000E+00
  0.00000000E+00  0.00000000E+00  0.00000000E+00
  0.00000000E+00  0.00000000E+00  0.00000000E+00
  0.00000000E+00  0.00000000E+00  0.00000000E+00
