 H  C Cu 
 1.0000000000000000
    10.2710469276006560    0.0000000000000000    0.0000000000000006
     2.5677617319001635    6.2897060242006209    0.0000000000000005
     0.0000000000000000    0.0000000000000000   30.0000000000000000
 H   C   Cu 
   2   2  48
Selective dynamics
Cartesian
  3.0884802562780762  2.3914530184635936  8.9376292016182539   T   T   T
  9.7231675036037153  3.9499495676605743 21.0623707983817461   T   T   T
  3.1404917240524597  2.0764822285476328  9.9843465038167398   T   T   T
  9.6823444041172362  4.2391802437847437 20.0071713738437467   T   T   T
  1.8519802678490931  0.9911853552460789 10.8964408352240696   T   T   T
  4.5111831954870141  1.0647824491720541 10.8839830919791520   T   T   T
  7.0527390232627267  1.0579313876115308 10.9679293682805881   T   T   T
  9.5985193614005571  1.0541664869208458 10.9704554001651253   T   T   T
  4.4920206723732390  5.2356794309371315 12.3665976024381337   T   T   T
  9.6264896531995063  5.2245712364988446 12.3355105901019240   T   T   T
 12.2005314976443984  5.2377695393772461 12.3480571405427479   T   T   T
  7.0701695857425744  5.2494574780553522 12.3309185645497763   T   T   T
  8.3405588614692565  3.1489176655310742 11.6250240883812914   T   T   T
 10.9108210469363591  3.1430034385018240 11.6221090400437532   T   T   T
  3.2119055217825569  3.2392493933893802 11.5202010519111369   T   T   T
  5.7875325203300747  3.1611022842536043 11.6429648671313579   T   T   T
  4.4937879908595875  3.1447819243793109 13.8798943124050869   F   F   F
  1.9260262589594233  3.1447819243793109 13.8798943124050869   F   F   F
  7.0615497227597510  3.1447819243793109 13.8798943124050869   F   F   F
  9.6293114546599146  3.1447819243793109 13.8798943124050869   F   F   F
  5.7776688568096510  5.2413505991128666 14.6211432759687998   F   F   F
  3.2099071249094870  5.2413505991128666 14.6211432759687998   F   F   F
 10.9131923206099799  5.2413505991128666 14.6211432759687980   F   F   F
  8.3454305887098155  5.2413505991128666 14.6211432759687998   F   F   F
  9.6293114546599341  1.0482132496457564 15.3623922395322783   F   F   F
  1.9260262589594419  1.0482132496457564 15.3623922395322783   F   F   F
  4.4937879908596052  1.0482132496457564 15.3623922395322783   F   F   F
  7.0615497227597697  1.0482132496457564 15.3623922395322783   F   F   F
  3.2099071249095239  1.0482132496457564 13.1386453488413757   F   F   F
  5.7776688568096883  1.0482132496457564 13.1386453488413775   F   F   F
  0.6421453930093597  1.0482132496457564 13.1386453488413757   F   F   F
  8.3454305887098528  1.0482132496457564 13.1386453488413792   F   F   F
  8.3454305887098332  3.1447819243793109 16.1036412030959930   F   F   F
 10.9131923206099977  3.1447819243793109 16.1036412030959930   F   F   F
  3.2099071249095057  3.1447819243793109 16.1036412030959895   F   F   F
  5.7776688568096688  3.1447819243793109 16.1036412030959930   F   F   F
  7.0615497227597332  5.2413505991128666 16.8448901666596988   F   F   F
  9.6293114546598968  5.2413505991128666 16.8448901666596988   F   F   F
 12.1970731865600612  5.2413505991128666 16.8448901666596988   F   F   F
  4.4937879908595697  5.2413505991128666 16.8448901666596988   F   F   F
  4.5029881610224960  3.1448704518348523 18.3598482762362387   T   T   T
  1.9341757495589096  3.1489666635415485 18.3587946202479948   T   T   T
  9.6320717603172064  3.0567304649945650 18.4814282408279027   T   T   T
  7.0582345077513402  3.1352487100746562 18.3439066864312963   T   T   T
  5.7739700348770393  1.0483599650220941 17.6473438228875956   T   T   T
  3.2169571498620781  1.0666324547573125 17.6486467660352275   T   T   T
  0.6403272880768095  1.0569582479716260 17.6364993298218273   T   T   T
  8.3521565848225183  1.0582758952210511 17.6200426898972466   T   T   T
  5.7851907313141950  5.2362220108725248 19.0170932988375831   T   T   T
  3.2411845539153763  5.2406449225621925 19.0129292112042165   T   T   T
 10.9871071070590087  5.2985206689545423 19.0877740848452326   T   T   T
  8.3226183477398763  5.2462707752588313 19.0944033480983677   T   T   T
