 H  C  O Cu                             
   1.00000000000000     
    10.2710469276006560    0.0000000000000000    0.0000000000000006
     2.5677617319001635    6.2897060242006209    0.0000000000000005
     0.0000000000000000    0.0000000000000000   30.0000000000000000
   H    C    O    Cu
     2     2     4    48
Selective dynamics
Direct
  0.3491772884441126  0.1234019967080047  0.2391998910790267   T   T   T
  0.6507131064712286  0.8764916721449842  0.7607713374590471   T   T   T
  0.6678783101853716  0.8620128671873069  0.6970663976794886   T   T   T
  0.3320631475175175  0.1379890533407593  0.3028993740260081   T   T   T
  0.4030436821856136  0.1345918301506503  0.2654408456673645   T   T   T
  0.2126870422294966  0.1249385943296590  0.2998603086801956   T   T   T
  0.7872561683700717  0.8750458478289989  0.7001146275913054   T   T   T
  0.5968736877142461  0.8653509089224962  0.7345190176289627   T   T   T
  0.1388767167965004  0.1605979056511367  0.3637654035536806   T   T   T
  0.6457242761359802  0.1701228591085790  0.3653581076171127   T   T   T
  0.8916536790626480  0.1692741464883314  0.3658213995093041   T   T   T
  0.4018853670436058  0.1639315004875169  0.3627717297528981   T   T   T
  0.6860102549619901  0.5030992197246429  0.3883343130709707   T   T   T
  0.9372073414213299  0.4999809014234682  0.3888358227504783   T   T   T
  0.1872621464850501  0.4997244650525149  0.3892127599763798   T   T   T
  0.4366941252226634  0.5014776660980264  0.3888347467326494   T   T   T
  0.3125020243079035  0.5000403564425184  0.4629061959652105   F   F   F
  0.5625020243079035  0.5000403564425184  0.4629061959652105   F   F   F
  0.0625020243079035  0.5000403564425184  0.4629061959652105   F   F   F
  0.8125020243079035  0.5000403564425184  0.4629061959652105   F   F   F
  0.3541686909745678  0.8333736897758541  0.4876144947506660   F   F   F
  0.1041686909745678  0.8333736897758541  0.4876144947506660   F   F   F
  0.8541686909745678  0.8333736897758541  0.4876144947506660   F   F   F
  0.6041686909745678  0.8333736897758541  0.4876144947506660   F   F   F
  0.4789254087894363  0.8329777190931341  0.4123397180403064   T   T   T
  0.7292300122342010  0.8328162529637122  0.4117567661260383   T   T   T
  0.2290886323359994  0.8312313815113312  0.4126501591977802   T   T   T
  0.9797126218188179  0.8321879029432392  0.4117542734936745   T   T   T
  0.2708353576412392  0.1667070231091827  0.4381978971797551   F   F   F
  0.5208353576412392  0.1667070231091827  0.4381978971797551   F   F   F
  0.0208353576412392  0.1667070231091827  0.4381978971797551   F   F   F
  0.7708353576412392  0.1667070231091827  0.4381978971797551   F   F   F
  0.6875020243079035  0.5000403564425184  0.5370310923215840   F   F   F
  0.9375020243079035  0.5000403564425184  0.5370310923215840   F   F   F
  0.1875020243079035  0.5000403564425184  0.5370310923215840   F   F   F
  0.4375020243079035  0.5000403564425184  0.5370310923215840   F   F   F
  0.3958353576412392  0.1667070231091827  0.5123227935361285   F   F   F
  0.1458353576412392  0.1667070231091827  0.5123227935361285   F   F   F
  0.6458353576412392  0.1667070231091827  0.5123227935361285   F   F   F
  0.8958353576412392  0.1667070231091827  0.5123227935361285   F   F   F
  0.4791686909745678  0.8333736897758541  0.5617393911070394   F   F   F
  0.7291686909745678  0.8333736897758541  0.5617393911070394   F   F   F
  0.9791686909745678  0.8333736897758541  0.5617393911070394   F   F   F
  0.2291686909745678  0.8333736897758541  0.5617393911070394   F   F   F
  0.5210783881814158  0.1670980785971485  0.5876022371103201   T   T   T
  0.2707684025651494  0.1672855162596024  0.5881826442839042   T   T   T
  0.0202874878501976  0.1679151261087871  0.5881842756874724   T   T   T
  0.7709180186928195  0.1688345209450977  0.5872947426000197   T   T   T
  0.3542774197274713  0.8299807500328024  0.6345778242393614   T   T   T
  0.1083275732982347  0.8308427362505967  0.6341161056896444   T   T   T
  0.8610897976006907  0.8395111038096562  0.6362018572126642   T   T   T
  0.5981083943051857  0.8361688469701807  0.6371809076667004   T   T   T
  0.0627795362809176  0.5001350951506257  0.6111095920495576   T   T   T
  0.3139872326223108  0.4970033389209617  0.6116045272390488   T   T   T
  0.5633114803931699  0.4986072444563767  0.6111063301505854   T   T   T
  0.8127319625544801  0.5003844582797661  0.6107278393713234   T   T   T
 
  0.00000000E+00  0.00000000E+00  0.00000000E+00
  0.00000000E+00  0.00000000E+00  0.00000000E+00
  0.00000000E+00  0.00000000E+00  0.00000000E+00
  0.00000000E+00  0.00000000E+00  0.00000000E+00
  0.00000000E+00  0.00000000E+00  0.00000000E+00
  0.00000000E+00  0.00000000E+00  0.00000000E+00
  0.00000000E+00  0.00000000E+00  0.00000000E+00
  0.00000000E+00  0.00000000E+00  0.00000000E+00
  0.00000000E+00  0.00000000E+00  0.00000000E+00
  0.00000000E+00  0.00000000E+00  0.00000000E+00
  0.00000000E+00  0.00000000E+00  0.00000000E+00
  0.00000000E+00  0.00000000E+00  0.00000000E+00
  0.00000000E+00  0.00000000E+00  0.00000000E+00
  0.00000000E+00  0.00000000E+00  0.00000000E+00
  0.00000000E+00  0.00000000E+00  0.00000000E+00
  0.00000000E+00  0.00000000E+00  0.00000000E+00
  0.00000000E+00  0.00000000E+00  0.00000000E+00
  0.00000000E+00  0.00000000E+00  0.00000000E+00
  0.00000000E+00  0.00000000E+00  0.00000000E+00
  0.00000000E+00  0.00000000E+00  0.00000000E+00
  0.00000000E+00  0.00000000E+00  0.00000000E+00
  0.00000000E+00  0.00000000E+00  0.00000000E+00
  0.00000000E+00  0.00000000E+00  0.00000000E+00
  0.00000000E+00  0.00000000E+00  0.00000000E+00
  0.00000000E+00  0.00000000E+00  0.00000000E+00
  0.00000000E+00  0.00000000E+00  0.00000000E+00
  0.00000000E+00  0.00000000E+00  0.00000000E+00
  0.00000000E+00  0.00000000E+00  0.00000000E+00
  0.00000000E+00  0.00000000E+00  0.00000000E+00
  0.00000000E+00  0.00000000E+00  0.00000000E+00
  0.00000000E+00  0.00000000E+00  0.00000000E+00
  0.00000000E+00  0.00000000E+00  0.00000000E+00
  0.00000000E+00  0.00000000E+00  0.00000000E+00
  0.00000000E+00  0.00000000E+00  0.00000000E+00
  0.00000000E+00  0.00000000E+00  0.00000000E+00
  0.00000000E+00  0.00000000E+00  0.00000000E+00
  0.00000000E+00  0.00000000E+00  0.00000000E+00
  0.00000000E+00  0.00000000E+00  0.00000000E+00
  0.00000000E+00  0.00000000E+00  0.00000000E+00
  0.00000000E+00  0.00000000E+00  0.00000000E+00
  0.00000000E+00  0.00000000E+00  0.00000000E+00
  0.00000000E+00  0.00000000E+00  0.00000000E+00
  0.00000000E+00  0.00000000E+00  0.00000000E+00
  0.00000000E+00  0.00000000E+00  0.00000000E+00
  0.00000000E+00  0.00000000E+00  0.00000000E+00
  0.00000000E+00  0.00000000E+00  0.00000000E+00
  0.00000000E+00  0.00000000E+00  0.00000000E+00
  0.00000000E+00  0.00000000E+00  0.00000000E+00
  0.00000000E+00  0.00000000E+00  0.00000000E+00
  0.00000000E+00  0.00000000E+00  0.00000000E+00
  0.00000000E+00  0.00000000E+00  0.00000000E+00
  0.00000000E+00  0.00000000E+00  0.00000000E+00
  0.00000000E+00  0.00000000E+00  0.00000000E+00
  0.00000000E+00  0.00000000E+00  0.00000000E+00
  0.00000000E+00  0.00000000E+00  0.00000000E+00
  0.00000000E+00  0.00000000E+00  0.00000000E+00
