 H  C Cu                                
   1.00000000000000     
    10.2710469276006560    0.0000000000000000    0.0000000000000006
     2.5677617319001635    6.2897060242006209    0.0000000000000005
     0.0000000000000000    0.0000000000000000   30.0000000000000000
   H    C    Cu
     2     2    48
Selective dynamics
Direct
  0.2055859628068626  0.3818974885347936  0.2976442838058700   T   T   T
  0.7901209798669416  0.6254695665141156  0.7023109278500885   T   T   T
  0.2239904821808920  0.3286952360082492  0.3323461329900358   T   T   T
  0.7736636318890184  0.6749615302706313  0.6673488530270241   T   T   T
  0.1400690534453200  0.1599505463702327  0.3633047192826936   T   T   T
  0.3973100828420630  0.1699774062286312  0.3628117631808965   T   T   T
  0.6450156644417575  0.1686297592093339  0.3656927356748116   T   T   T
  0.8921673611154618  0.1686308752309417  0.3657684824395789   T   T   T
  0.2291798311087495  0.8330516120070636  0.4121189086136636   T   T   T
  0.7295851029743048  0.8308306022366224  0.4110254740851823   T   T   T
  0.9794141966697699  0.8332615753664740  0.4114227569984809   T   T   T
  0.4797862969068464  0.8341608667070813  0.4109964153965446   T   T   T
  0.6869315246214255  0.5010665136723786  0.3873483459119287   T   T   T
  0.9363320912368227  0.5005155717812327  0.3875046199222950   T   T   T
  0.1842216403623235  0.5140450166938114  0.3839449366351982   T   T   T
  0.4382866187183494  0.5026036536211985  0.3881931575972856   T   T   T
  0.3125227806840485  0.4999886977673142  0.4626631437468376   F   F   F
  0.0625227806840485  0.4999886977673142  0.4626631437468376   F   F   F
  0.5625227806840485  0.4999886977673142  0.4626631437468376   F   F   F
  0.8125227806840485  0.4999886977673142  0.4626631437468376   F   F   F
  0.3541894473507128  0.8333220311006500  0.4873714425322930   F   F   F
  0.1041894473507128  0.8333220311006500  0.4873714425322930   F   F   F
  0.8541894473507128  0.8333220311006500  0.4873714425322930   F   F   F
  0.6041894473507128  0.8333220311006500  0.4873714425322930   F   F   F
  0.8958561140173842  0.1666553644339785  0.5120797413177414   F   F   F
  0.1458561140173842  0.1666553644339785  0.5120797413177414   F   F   F
  0.3958561140173842  0.1666553644339785  0.5120797413177414   F   F   F
  0.6458561140173842  0.1666553644339785  0.5120797413177414   F   F   F
  0.2708561140173842  0.1666553644339785  0.4379548449613822   F   F   F
  0.5208561140173842  0.1666553644339785  0.4379548449613822   F   F   F
  0.0208561140173842  0.1666553644339785  0.4379548449613822   F   F   F
  0.7708561140173842  0.1666553644339785  0.4379548449613822   F   F   F
  0.6875227806840485  0.4999886977673142  0.5367880401031968   F   F   F
  0.9375227806840485  0.4999886977673142  0.5367880401031968   F   F   F
  0.1875227806840485  0.4999886977673142  0.5367880401031968   F   F   F
  0.4375227806840485  0.4999886977673142  0.5367880401031968   F   F   F
  0.4791894473507128  0.8333220311006500  0.5614963388886594   F   F   F
  0.7291894473507128  0.8333220311006500  0.5614963388886594   F   F   F
  0.9791894473507128  0.8333220311006500  0.5614963388886594   F   F   F
  0.2291894473507128  0.8333220311006500  0.5614963388886594   F   F   F
  0.3132729900240924  0.4994251116611010  0.6121455307933449   T   T   T
  0.0639992759498492  0.4998028024202071  0.6118847289138692   T   T   T
  0.8159159885836502  0.4868971174918528  0.6160474032016388   T   T   T
  0.5619961324185960  0.4983254004928405  0.6113387414429141   T   T   T
  0.5203475127536559  0.1669642241542888  0.5882939590876576   T   T   T
  0.2707673318844879  0.1693559557926169  0.5884357435660932   T   T   T
  0.0205553849342775  0.1674394074533566  0.5880804445480823   T   T   T
  0.7710956187289580  0.1675452952076744  0.5874351101110361   T   T   T
  0.3546695075215304  0.8319631593822381  0.6337939718347766   T   T   T
  0.1076828099691985  0.8319787541103552  0.6336636638614673   T   T   T
  0.8598722834021032  0.8401222233821675  0.6361812260895193   T   T   T
  0.6014295224603724  0.8330049646155828  0.6364951648706295   T   T   T
 
  0.00000000E+00  0.00000000E+00  0.00000000E+00
  0.00000000E+00  0.00000000E+00  0.00000000E+00
  0.00000000E+00  0.00000000E+00  0.00000000E+00
  0.00000000E+00  0.00000000E+00  0.00000000E+00
  0.00000000E+00  0.00000000E+00  0.00000000E+00
  0.00000000E+00  0.00000000E+00  0.00000000E+00
  0.00000000E+00  0.00000000E+00  0.00000000E+00
  0.00000000E+00  0.00000000E+00  0.00000000E+00
  0.00000000E+00  0.00000000E+00  0.00000000E+00
  0.00000000E+00  0.00000000E+00  0.00000000E+00
  0.00000000E+00  0.00000000E+00  0.00000000E+00
  0.00000000E+00  0.00000000E+00  0.00000000E+00
  0.00000000E+00  0.00000000E+00  0.00000000E+00
  0.00000000E+00  0.00000000E+00  0.00000000E+00
  0.00000000E+00  0.00000000E+00  0.00000000E+00
  0.00000000E+00  0.00000000E+00  0.00000000E+00
  0.00000000E+00  0.00000000E+00  0.00000000E+00
  0.00000000E+00  0.00000000E+00  0.00000000E+00
  0.00000000E+00  0.00000000E+00  0.00000000E+00
  0.00000000E+00  0.00000000E+00  0.00000000E+00
  0.00000000E+00  0.00000000E+00  0.00000000E+00
  0.00000000E+00  0.00000000E+00  0.00000000E+00
  0.00000000E+00  0.00000000E+00  0.00000000E+00
  0.00000000E+00  0.00000000E+00  0.00000000E+00
  0.00000000E+00  0.00000000E+00  0.00000000E+00
  0.00000000E+00  0.00000000E+00  0.00000000E+00
  0.00000000E+00  0.00000000E+00  0.00000000E+00
  0.00000000E+00  0.00000000E+00  0.00000000E+00
  0.00000000E+00  0.00000000E+00  0.00000000E+00
  0.00000000E+00  0.00000000E+00  0.00000000E+00
  0.00000000E+00  0.00000000E+00  0.00000000E+00
  0.00000000E+00  0.00000000E+00  0.00000000E+00
  0.00000000E+00  0.00000000E+00  0.00000000E+00
  0.00000000E+00  0.00000000E+00  0.00000000E+00
  0.00000000E+00  0.00000000E+00  0.00000000E+00
  0.00000000E+00  0.00000000E+00  0.00000000E+00
  0.00000000E+00  0.00000000E+00  0.00000000E+00
  0.00000000E+00  0.00000000E+00  0.00000000E+00
  0.00000000E+00  0.00000000E+00  0.00000000E+00
  0.00000000E+00  0.00000000E+00  0.00000000E+00
  0.00000000E+00  0.00000000E+00  0.00000000E+00
  0.00000000E+00  0.00000000E+00  0.00000000E+00
  0.00000000E+00  0.00000000E+00  0.00000000E+00
  0.00000000E+00  0.00000000E+00  0.00000000E+00
  0.00000000E+00  0.00000000E+00  0.00000000E+00
  0.00000000E+00  0.00000000E+00  0.00000000E+00
  0.00000000E+00  0.00000000E+00  0.00000000E+00
  0.00000000E+00  0.00000000E+00  0.00000000E+00
  0.00000000E+00  0.00000000E+00  0.00000000E+00
  0.00000000E+00  0.00000000E+00  0.00000000E+00
  0.00000000E+00  0.00000000E+00  0.00000000E+00
  0.00000000E+00  0.00000000E+00  0.00000000E+00
