 H  C  O Cu                             
   1.00000000000000     
    10.2710469276006560    0.0000000000000000    0.0000000000000006
     2.5677617319001635    6.2897060242006209    0.0000000000000005
     0.0000000000000000    0.0000000000000000   20.0000000000000000
   H    C    O    Cu
     4     2     2    48
Selective dynamics
Direct
  0.3264329580490654  0.4040860706473346  0.1636595361804454   T   T   T
  0.4325755746904293  0.9603593846792939  0.1805650389110691   T   T   T
  0.5677196652685091  0.0401568701855981  0.8193377217866306   T   T   T
  0.6730027244479379  0.5965351240926223  0.8364481182377523   T   T   T
  0.6047134542510976  0.8778167366116941  0.7995846172930939   T   T   T
  0.3952671588318667  0.1226168428064824  0.2003930734604553   T   T   T
  0.3609514712943335  0.2542236478426482  0.1505603470570618   T   T   T
  0.6387528681827049  0.7464547118995942  0.8494758440733391   T   T   T
  0.1455754630866237  0.1687001381026529  0.2978460317189047   T   T   T
  0.6453313649635868  0.1698748537416227  0.2978197186146896   T   T   T
  0.8954063131063220  0.1694278429811880  0.2982010999665364   T   T   T
  0.3952125398516932  0.1704299323007520  0.2947250178356526   T   T   T
  0.6871960931118869  0.5017395158004685  0.3321879330777784   T   T   T
  0.9371787567488709  0.5017780914071541  0.3322852599112711   T   T   T
  0.1862169279092725  0.5035430201020415  0.3336993453674540   T   T   T
  0.4376630940410962  0.5027738058156003  0.3337858261777469   T   T   T
  0.3125000000000000  0.5000000000000000  0.4444063277327217   F   F   F
  0.5625000000000000  0.5000000000000000  0.4444063277327217   F   F   F
  0.0625000000000000  0.5000000000000000  0.4444063277327217   F   F   F
  0.8125000000000000  0.5000000000000000  0.4444063277327217   F   F   F
  0.3541666666666643  0.8333333333333357  0.4814687759109049   F   F   F
  0.1041666666666643  0.8333333333333357  0.4814687759109049   F   F   F
  0.8541666666666643  0.8333333333333357  0.4814687759109049   F   F   F
  0.6041666666666643  0.8333333333333357  0.4814687759109049   F   F   F
  0.4796932785625310  0.8327450820116938  0.3685650476782362   T   T   T
  0.7293566340281386  0.8324786425467005  0.3675583900500025   T   T   T
  0.2291931044501578  0.8326797216537902  0.3677167790973727   T   T   T
  0.9792654945535926  0.8330368053738445  0.3673661816177941   T   T   T
  0.2708333333333357  0.1666666666666643  0.4073438795545385   F   F   F
  0.5208333333333357  0.1666666666666643  0.4073438795545385   F   F   F
  0.0208333333333357  0.1666666666666643  0.4073438795545385   F   F   F
  0.7708333333333357  0.1666666666666643  0.4073438795545385   F   F   F
  0.6875000000000000  0.5000000000000000  0.5555936722672783   F   F   F
  0.9375000000000000  0.5000000000000000  0.5555936722672783   F   F   F
  0.1875000000000000  0.5000000000000000  0.5555936722672783   F   F   F
  0.4375000000000000  0.5000000000000000  0.5555936722672783   F   F   F
  0.3958333333333357  0.1666666666666643  0.5185312240890951   F   F   F
  0.1458333333333357  0.1666666666666643  0.5185312240890951   F   F   F
  0.6458333333333357  0.1666666666666643  0.5185312240890951   F   F   F
  0.8958333333333357  0.1666666666666643  0.5185312240890951   F   F   F
  0.4791666666666643  0.8333333333333357  0.5926561204454615   F   F   F
  0.7291666666666643  0.8333333333333357  0.5926561204454615   F   F   F
  0.9791666666666643  0.8333333333333357  0.5926561204454615   F   F   F
  0.2291666666666643  0.8333333333333357  0.5926561204454615   F   F   F
  0.5202991056127011  0.1672797516388734  0.6314320869313013   T   T   T
  0.2706392698594015  0.1675487344036254  0.6324439584243918   T   T   T
  0.0207362491777162  0.1669897996887033  0.6326301804304632   T   T   T
  0.7708116614945809  0.1673235645696676  0.6322833216487697   T   T   T
  0.3546632727747006  0.8301606943626566  0.7021807712497993   T   T   T
  0.1045733782446917  0.8306346498429070  0.7018001075494812   T   T   T
  0.8544189452533847  0.8313092051104116  0.7021586645499636   T   T   T
  0.6047726247091227  0.8296023807634896  0.7052756082761757   T   T   T
  0.0628158914816109  0.4982646515259131  0.6677190458194828   T   T   T
  0.3127927463161851  0.4983028898060218  0.6678165414950259   T   T   T
  0.5623374804333755  0.4972478384582043  0.6662165461312186   T   T   T
  0.8137741732126423  0.4964767155731595  0.6663071702957029   T   T   T
 
  0.00000000E+00  0.00000000E+00  0.00000000E+00
  0.00000000E+00  0.00000000E+00  0.00000000E+00
  0.00000000E+00  0.00000000E+00  0.00000000E+00
  0.00000000E+00  0.00000000E+00  0.00000000E+00
  0.00000000E+00  0.00000000E+00  0.00000000E+00
  0.00000000E+00  0.00000000E+00  0.00000000E+00
  0.00000000E+00  0.00000000E+00  0.00000000E+00
  0.00000000E+00  0.00000000E+00  0.00000000E+00
  0.00000000E+00  0.00000000E+00  0.00000000E+00
  0.00000000E+00  0.00000000E+00  0.00000000E+00
  0.00000000E+00  0.00000000E+00  0.00000000E+00
  0.00000000E+00  0.00000000E+00  0.00000000E+00
  0.00000000E+00  0.00000000E+00  0.00000000E+00
  0.00000000E+00  0.00000000E+00  0.00000000E+00
  0.00000000E+00  0.00000000E+00  0.00000000E+00
  0.00000000E+00  0.00000000E+00  0.00000000E+00
  0.00000000E+00  0.00000000E+00  0.00000000E+00
  0.00000000E+00  0.00000000E+00  0.00000000E+00
  0.00000000E+00  0.00000000E+00  0.00000000E+00
  0.00000000E+00  0.00000000E+00  0.00000000E+00
  0.00000000E+00  0.00000000E+00  0.00000000E+00
  0.00000000E+00  0.00000000E+00  0.00000000E+00
  0.00000000E+00  0.00000000E+00  0.00000000E+00
  0.00000000E+00  0.00000000E+00  0.00000000E+00
  0.00000000E+00  0.00000000E+00  0.00000000E+00
  0.00000000E+00  0.00000000E+00  0.00000000E+00
  0.00000000E+00  0.00000000E+00  0.00000000E+00
  0.00000000E+00  0.00000000E+00  0.00000000E+00
  0.00000000E+00  0.00000000E+00  0.00000000E+00
  0.00000000E+00  0.00000000E+00  0.00000000E+00
  0.00000000E+00  0.00000000E+00  0.00000000E+00
  0.00000000E+00  0.00000000E+00  0.00000000E+00
  0.00000000E+00  0.00000000E+00  0.00000000E+00
  0.00000000E+00  0.00000000E+00  0.00000000E+00
  0.00000000E+00  0.00000000E+00  0.00000000E+00
  0.00000000E+00  0.00000000E+00  0.00000000E+00
  0.00000000E+00  0.00000000E+00  0.00000000E+00
  0.00000000E+00  0.00000000E+00  0.00000000E+00
  0.00000000E+00  0.00000000E+00  0.00000000E+00
  0.00000000E+00  0.00000000E+00  0.00000000E+00
  0.00000000E+00  0.00000000E+00  0.00000000E+00
  0.00000000E+00  0.00000000E+00  0.00000000E+00
  0.00000000E+00  0.00000000E+00  0.00000000E+00
  0.00000000E+00  0.00000000E+00  0.00000000E+00
  0.00000000E+00  0.00000000E+00  0.00000000E+00
  0.00000000E+00  0.00000000E+00  0.00000000E+00
  0.00000000E+00  0.00000000E+00  0.00000000E+00
  0.00000000E+00  0.00000000E+00  0.00000000E+00
  0.00000000E+00  0.00000000E+00  0.00000000E+00
  0.00000000E+00  0.00000000E+00  0.00000000E+00
  0.00000000E+00  0.00000000E+00  0.00000000E+00
  0.00000000E+00  0.00000000E+00  0.00000000E+00
  0.00000000E+00  0.00000000E+00  0.00000000E+00
  0.00000000E+00  0.00000000E+00  0.00000000E+00
  0.00000000E+00  0.00000000E+00  0.00000000E+00
  0.00000000E+00  0.00000000E+00  0.00000000E+00
