 H  C  O Cu                             
   1.00000000000000     
    10.2710469276006560    0.0000000000000000    0.0000000000000006
     2.5677617319001635    6.2897060242006209    0.0000000000000005
     0.0000000000000000    0.0000000000000000   30.0000000000000000
   H    C    O    Cu
     2     2     4    48
Selective dynamics
Direct
  0.3473062226820407  0.1242930617410087  0.2389666213722520   T   T   T
  0.6525680166896792  0.8755999324741585  0.7610141467416062   T   T   T
  0.6677113916542721  0.8638330023514234  0.6972390176152294   T   T   T
  0.3322302381383986  0.1361764165894432  0.3027364420533856   T   T   T
  0.4040066922766643  0.1342489618969303  0.2645424526694746   T   T   T
  0.2134149978247443  0.1230831839591368  0.2982724858047687   T   T   T
  0.7865286593554958  0.8769177810305107  0.7017246791053757   T   T   T
  0.5958915170035601  0.8656918220028845  0.7354278599369825   T   T   T
  0.1372609258306683  0.1624437439376783  0.3643154329739640   T   T   T
  0.6464528960253829  0.1728103512058264  0.3659493422059149   T   T   T
  0.8898465326264349  0.1725358827477749  0.3660540127497714   T   T   T
  0.4019803743445623  0.1646000446144147  0.3624091822895948   T   T   T
  0.6858887318552025  0.5042276862743507  0.3878456272678183   T   T   T
  0.9364440983897329  0.5013911129783721  0.3884747142674024   T   T   T
  0.1871617696288269  0.4998634584874812  0.3891561065077485   T   T   T
  0.4367509514112326  0.5016931640281374  0.3887595158520853   T   T   T
  0.3125020243079035  0.5000403564425184  0.4629061959652105   F   F   F
  0.5625020243079035  0.5000403564425184  0.4629061959652105   F   F   F
  0.0625020243079035  0.5000403564425184  0.4629061959652105   F   F   F
  0.8125020243079035  0.5000403564425184  0.4629061959652105   F   F   F
  0.3541686909745678  0.8333736897758541  0.4876144947506660   F   F   F
  0.1041686909745678  0.8333736897758541  0.4876144947506660   F   F   F
  0.8541686909745678  0.8333736897758541  0.4876144947506660   F   F   F
  0.6041686909745678  0.8333736897758541  0.4876144947506660   F   F   F
  0.4792060676354558  0.8327020674161124  0.4119896712375380   T   T   T
  0.7291834540994228  0.8327288352149669  0.4110883424941302   T   T   T
  0.2294456301689256  0.8305644595328764  0.4123396723655728   T   T   T
  0.9797026883118513  0.8319853174652647  0.4108279094335681   T   T   T
  0.2708353576412392  0.1667070231091827  0.4381978971797551   F   F   F
  0.5208353576412392  0.1667070231091827  0.4381978971797551   F   F   F
  0.0208353576412392  0.1667070231091827  0.4381978971797551   F   F   F
  0.7708353576412392  0.1667070231091827  0.4381978971797551   F   F   F
  0.6875020243079035  0.5000403564425184  0.5370310923215840   F   F   F
  0.9375020243079035  0.5000403564425184  0.5370310923215840   F   F   F
  0.1875020243079035  0.5000403564425184  0.5370310923215840   F   F   F
  0.4375020243079035  0.5000403564425184  0.5370310923215840   F   F   F
  0.3958353576412392  0.1667070231091827  0.5123227935361285   F   F   F
  0.1458353576412392  0.1667070231091827  0.5123227935361285   F   F   F
  0.6458353576412392  0.1667070231091827  0.5123227935361285   F   F   F
  0.8958353576412392  0.1667070231091827  0.5123227935361285   F   F   F
  0.4791686909745678  0.8333736897758541  0.5617393911070394   F   F   F
  0.7291686909745678  0.8333736897758541  0.5617393911070394   F   F   F
  0.9791686909745678  0.8333736897758541  0.5617393911070394   F   F   F
  0.2291686909745678  0.8333736897758541  0.5617393911070394   F   F   F
  0.5208003980729529  0.1673755135134345  0.5879538474718143   T   T   T
  0.2708130281801904  0.1673764656426089  0.5888481538187847   T   T   T
  0.0202960512667624  0.1681195998697509  0.5891084031951654   T   T   T
  0.7705605290445868  0.1695069503574373  0.5876076703315108   T   T   T
  0.3535472523020136  0.8272998385018488  0.6339896824513609   T   T   T
  0.1101388606327584  0.8275861960200472  0.6338856816706279   T   T   T
  0.8627113143495254  0.8376634282547225  0.6356472604768254   T   T   T
  0.5980193497159635  0.8355044570330780  0.6375500044081528   T   T   T
  0.0635440227925542  0.4987209451725435  0.6114692972605696   T   T   T
  0.3141111056472764  0.4958751241338931  0.6120932829892251   T   T   T
  0.5632579091031974  0.4983911109608639  0.6111832962744008   T   T   T
  0.8128347798149901  0.5002408681907108  0.6107883209340197   T   T   T
 
  0.00000000E+00  0.00000000E+00  0.00000000E+00
  0.00000000E+00  0.00000000E+00  0.00000000E+00
  0.00000000E+00  0.00000000E+00  0.00000000E+00
  0.00000000E+00  0.00000000E+00  0.00000000E+00
  0.00000000E+00  0.00000000E+00  0.00000000E+00
  0.00000000E+00  0.00000000E+00  0.00000000E+00
  0.00000000E+00  0.00000000E+00  0.00000000E+00
  0.00000000E+00  0.00000000E+00  0.00000000E+00
  0.00000000E+00  0.00000000E+00  0.00000000E+00
  0.00000000E+00  0.00000000E+00  0.00000000E+00
  0.00000000E+00  0.00000000E+00  0.00000000E+00
  0.00000000E+00  0.00000000E+00  0.00000000E+00
  0.00000000E+00  0.00000000E+00  0.00000000E+00
  0.00000000E+00  0.00000000E+00  0.00000000E+00
  0.00000000E+00  0.00000000E+00  0.00000000E+00
  0.00000000E+00  0.00000000E+00  0.00000000E+00
  0.00000000E+00  0.00000000E+00  0.00000000E+00
  0.00000000E+00  0.00000000E+00  0.00000000E+00
  0.00000000E+00  0.00000000E+00  0.00000000E+00
  0.00000000E+00  0.00000000E+00  0.00000000E+00
  0.00000000E+00  0.00000000E+00  0.00000000E+00
  0.00000000E+00  0.00000000E+00  0.00000000E+00
  0.00000000E+00  0.00000000E+00  0.00000000E+00
  0.00000000E+00  0.00000000E+00  0.00000000E+00
  0.00000000E+00  0.00000000E+00  0.00000000E+00
  0.00000000E+00  0.00000000E+00  0.00000000E+00
  0.00000000E+00  0.00000000E+00  0.00000000E+00
  0.00000000E+00  0.00000000E+00  0.00000000E+00
  0.00000000E+00  0.00000000E+00  0.00000000E+00
  0.00000000E+00  0.00000000E+00  0.00000000E+00
  0.00000000E+00  0.00000000E+00  0.00000000E+00
  0.00000000E+00  0.00000000E+00  0.00000000E+00
  0.00000000E+00  0.00000000E+00  0.00000000E+00
  0.00000000E+00  0.00000000E+00  0.00000000E+00
  0.00000000E+00  0.00000000E+00  0.00000000E+00
  0.00000000E+00  0.00000000E+00  0.00000000E+00
  0.00000000E+00  0.00000000E+00  0.00000000E+00
  0.00000000E+00  0.00000000E+00  0.00000000E+00
  0.00000000E+00  0.00000000E+00  0.00000000E+00
  0.00000000E+00  0.00000000E+00  0.00000000E+00
  0.00000000E+00  0.00000000E+00  0.00000000E+00
  0.00000000E+00  0.00000000E+00  0.00000000E+00
  0.00000000E+00  0.00000000E+00  0.00000000E+00
  0.00000000E+00  0.00000000E+00  0.00000000E+00
  0.00000000E+00  0.00000000E+00  0.00000000E+00
  0.00000000E+00  0.00000000E+00  0.00000000E+00
  0.00000000E+00  0.00000000E+00  0.00000000E+00
  0.00000000E+00  0.00000000E+00  0.00000000E+00
  0.00000000E+00  0.00000000E+00  0.00000000E+00
  0.00000000E+00  0.00000000E+00  0.00000000E+00
  0.00000000E+00  0.00000000E+00  0.00000000E+00
  0.00000000E+00  0.00000000E+00  0.00000000E+00
  0.00000000E+00  0.00000000E+00  0.00000000E+00
  0.00000000E+00  0.00000000E+00  0.00000000E+00
  0.00000000E+00  0.00000000E+00  0.00000000E+00
  0.00000000E+00  0.00000000E+00  0.00000000E+00
