 C  O  H                                
   1.00000000000000     
    10.0000000000000000    0.0000000000000000    0.0000000000000000
     0.0000000000000000   10.0000000000000000    0.0000000000000000
     0.0000000000000000    0.0000000000000000   10.0000000000000000
   C    O    H 
     2     1     6
Direct
  0.6088817467155069  0.4512266732541774  0.4999999988377563
  0.4920033036417252  0.5478908079179775  0.5000000009447219
  0.3707851681320297  0.4695923145722858  0.5000000024876204
  0.2952357419696175  0.5296539921131711  0.4999999998908834
  0.4955688027801832  0.6122690605793849  0.5888327853450201
  0.4955688013233090  0.6122690605189236  0.4111672165080276
  0.7036569894888077  0.5055657481927660  0.4999999989722627
  0.6055483231784770  0.3873687212669809  0.5885033815071945
  0.6055483227703420  0.3873687215843279  0.4114966155065133
 
  0.00000000E+00  0.00000000E+00  0.00000000E+00
  0.00000000E+00  0.00000000E+00  0.00000000E+00
  0.00000000E+00  0.00000000E+00  0.00000000E+00
  0.00000000E+00  0.00000000E+00  0.00000000E+00
  0.00000000E+00  0.00000000E+00  0.00000000E+00
  0.00000000E+00  0.00000000E+00  0.00000000E+00
  0.00000000E+00  0.00000000E+00  0.00000000E+00
  0.00000000E+00  0.00000000E+00  0.00000000E+00
  0.00000000E+00  0.00000000E+00  0.00000000E+00
