Cu48 H1 C1
1.0
  10.2710469276006560    0.0000000000000000    0.0000000000000006
   2.5677617319001635    6.2897060242006209    0.0000000000000005
   0.0000000000000000    0.0000000000000000   32.6149543968023465
Cu C H
48 1 1
Selective dynamics
direct
   0.4934768704689778    0.8300910007527426    0.5568181818181819 F F F Cu
   0.7434768704689779    0.8300910007527426    0.5568181818181819 F F F Cu
   0.9934768704689774    0.8300910007527426    0.5568181818181819 F F F Cu
   0.2434768704689779    0.8300910007527426    0.5568181818181819 F F F Cu
   0.5768102038023107    0.4967576674194101    0.6022727272727273 T T T Cu
   0.8268102038023107    0.4967576674194101    0.6022727272727273 T T T Cu
   0.0768102038023104    0.4967576674194101    0.6022727272727273 T T T Cu
   0.3268102038023109    0.4967576674194101    0.6022727272727273 T T T Cu
   0.7851435371356452    0.1634243340860751    0.5795454545454550 T T T Cu
   0.0351435371356442    0.1634243340860751    0.5795454545454550 T T T Cu
   0.2851435371356449    0.1634243340860751    0.5795454545454550 T T T Cu
   0.5351435371356450    0.1634243340860751    0.5795454545454550 T T T Cu
   0.6184768704689774    0.8300910007527427    0.6250000000000000 T T T Cu
   0.8684768704689773    0.8300910007527427    0.6250000000000000 T T T Cu
   0.1184768704689775    0.8300910007527427    0.6250000000000000 T T T Cu
   0.3684768704689773    0.8300910007527427    0.6250000000000000 T T T Cu
   0.8268102038023109    0.4967576674194099    0.4659090909090909 F F F Cu
   0.0768102038023105    0.4967576674194099    0.4659090909090909 F F F Cu
   0.3268102038023109    0.4967576674194099    0.4659090909090909 F F F Cu
   0.5768102038023109    0.4967576674194099    0.4659090909090909 F F F Cu
   0.9101435371356447    0.1634243340860751    0.5113636363636364 F F F Cu
   0.1601435371356440    0.1634243340860751    0.5113636363636364 F F F Cu
   0.4101435371356447    0.1634243340860751    0.5113636363636364 F F F Cu
   0.6601435371356449    0.1634243340860751    0.5113636363636364 F F F Cu
   0.6184768704689773    0.8300910007527426    0.4886363636363636 F F F Cu
   0.8684768704689771    0.8300910007527426    0.4886363636363636 F F F Cu
   0.1184768704689772    0.8300910007527426    0.4886363636363635 F F F Cu
   0.3684768704689771    0.8300910007527426    0.4886363636363635 F F F Cu
   0.7018102038023114    0.4967576674194099    0.5340909090909092 F F F Cu
   0.9518102038023103    0.4967576674194099    0.5340909090909092 F F F Cu
   0.2018102038023114    0.4967576674194099    0.5340909090909092 F F F Cu
   0.4518102038023115    0.4967576674194099    0.5340909090909092 F F F Cu
   0.6601435371356444    0.1634243340860754    0.3750000000000000 T T T Cu
   0.9101435371356443    0.1634243340860754    0.3750000000000000 T T T Cu
   0.1601435371356442    0.1634243340860754    0.3749999999999999 T T T Cu
   0.4101435371356447    0.1634243340860754    0.3750000000000000 T T T Cu
   0.7434768704689776    0.8300910007527426    0.4204545454545454 T T T Cu
   0.9934768704689771    0.8300910007527426    0.4204545454545455 T T T Cu
   0.2434768704689779    0.8300910007527426    0.4204545454545454 T T T Cu
   0.4934768704689776    0.8300910007527426    0.4204545454545455 T T T Cu
   0.7018102038023113    0.4967576674194099    0.3977272727272728 T T T Cu
   0.9518102038023103    0.4967576674194099    0.3977272727272728 T T T Cu
   0.2018102038023110    0.4967576674194099    0.3977272727272728 T T T Cu
   0.4518102038023110    0.4967576674194099    0.3977272727272728 T T T Cu
   0.5351435371356450    0.1634243340860749    0.4431818181818181 F F F Cu
   0.7851435371356453    0.1634243340860749    0.4431818181818182 F F F Cu
   0.0351435371356442    0.1634243340860749    0.4431818181818182 F F F Cu
   0.2851435371356447    0.1634243340860749    0.4431818181818181 F F F Cu
   0.0212546482467553    0.7189798896416330    0.6741466887441852 T T T C
   0.0212546482467553    0.7189798896416330    0.7078735487182052 T T T H
