 H Cu                                   
   1.00000000000000     
    10.2710469276006560    0.0000000000000000    0.0000000000000006
     2.5677617319001635    6.2897060242006209    0.0000000000000005
     0.0000000000000000    0.0000000000000000   30.0000000000000000
   H    Cu
     2    48
Selective dynamics
Direct
  0.2309655911018854  0.3128896083351483  0.3398355164058603   T   T   T
  0.7690378344870841  0.6870567177577023  0.6601738530975585   T   T   T
  0.1444655179873803  0.1686385371473129  0.3647223941495779   T   T   T
  0.6436146971976365  0.1692977591528652  0.3658422858248345   T   T   T
  0.6864246680715955  0.5019170208690866  0.3877948876505082   T   T   T
  0.9341512959775279  0.5022484797523352  0.3883551981608206   T   T   T
  0.8948821998385145  0.1668984477756659  0.3658978329920420   T   T   T
  0.3933617878821266  0.1730710847826896  0.3643238001790894   T   T   T
  0.4787165736413402  0.8343728470801465  0.4113834735225063   T   T   T
  0.7289183112733151  0.8324304318351720  0.4116713983617273   T   T   T
  0.2282079973181751  0.8312640617591660  0.4116030082613960   T   T   T
  0.9804054909506084  0.8298946487006281  0.4114366381058878   T   T   T
  0.2708272740316886  0.1666729488154246  0.4382458528902404   F   F   F
  0.5208272740316886  0.1666729488154246  0.4382458528902404   F   F   F
  0.1858761748971489  0.5020021748587868  0.3851958806576691   T   T   T
  0.4377216141856615  0.5039403947610839  0.3887341410043018   T   T   T
  0.3124939406983529  0.5000062821487603  0.4629541516756959   F   F   F
  0.5624939406983529  0.5000062821487603  0.4629541516756959   F   F   F
  0.0624939406983529  0.5000062821487603  0.4629541516756959   F   F   F
  0.8124939406983529  0.5000062821487603  0.4629541516756959   F   F   F
  0.3541606073650172  0.8333396154820960  0.4876624504611513   F   F   F
  0.1041606073650172  0.8333396154820960  0.4876624504611513   F   F   F
  0.8541606073650172  0.8333396154820960  0.4876624504611513   F   F   F
  0.6041606073650172  0.8333396154820960  0.4876624504611513   F   F   F
  0.8958272740316886  0.1666729488154246  0.5123707492466139   F   F   F
  0.6458272740316886  0.1666729488154246  0.5123707492466139   F   F   F
  0.1458272740316886  0.1666729488154246  0.5123707492466139   F   F   F
  0.3958272740316886  0.1666729488154246  0.5123707492466139   F   F   F
  0.4374939406983529  0.5000062821487603  0.5370790480320693   F   F   F
  0.1874939406983529  0.5000062821487603  0.5370790480320693   F   F   F
  0.0208272740316886  0.1666729488154246  0.4382458528902404   F   F   F
  0.7708272740316886  0.1666729488154246  0.4382458528902404   F   F   F
  0.6874939406983529  0.5000062821487603  0.5370790480320693   F   F   F
  0.9374939406983529  0.5000062821487603  0.5370790480320693   F   F   F
  0.4791606073650172  0.8333396154820960  0.5617873468175247   F   F   F
  0.7291606073650172  0.8333396154820960  0.5617873468175247   F   F   F
  0.5212728795629173  0.1656338948726526  0.5886462855113594   T   T   T
  0.2710748418962962  0.1675653544111616  0.5883591733178086   T   T   T
  0.9791606073650172  0.8333396154820960  0.5617873468175247   F   F   F
  0.2291606073650172  0.8333396154820960  0.5617873468175247   F   F   F
  0.8141155398281266  0.4979937214056923  0.6148223577400125   T   T   T
  0.5622692129466527  0.4960506910297037  0.6112973804254944   T   T   T
  0.3135676464414632  0.4980748471958610  0.6122352392725580   T   T   T
  0.0658450008651132  0.4977381795943849  0.6116752268822743   T   T   T
  0.6066236545028093  0.8269288542175915  0.6357019413013369   T   T   T
  0.8555328560012373  0.8313574911618146  0.6353052703361296   T   T   T
  0.0195882749730072  0.1700948138937158  0.5885935690873553   T   T   T
  0.7717800378160538  0.1687354338825136  0.5884253331512320   T   T   T
  0.3563757589791295  0.8306914582013887  0.6341891996453570   T   T   T
  0.1051148928513759  0.8330862340631936  0.6341339317066398   T   T   T
 
  0.00000000E+00  0.00000000E+00  0.00000000E+00
  0.00000000E+00  0.00000000E+00  0.00000000E+00
  0.00000000E+00  0.00000000E+00  0.00000000E+00
  0.00000000E+00  0.00000000E+00  0.00000000E+00
  0.00000000E+00  0.00000000E+00  0.00000000E+00
  0.00000000E+00  0.00000000E+00  0.00000000E+00
  0.00000000E+00  0.00000000E+00  0.00000000E+00
  0.00000000E+00  0.00000000E+00  0.00000000E+00
  0.00000000E+00  0.00000000E+00  0.00000000E+00
  0.00000000E+00  0.00000000E+00  0.00000000E+00
  0.00000000E+00  0.00000000E+00  0.00000000E+00
  0.00000000E+00  0.00000000E+00  0.00000000E+00
  0.00000000E+00  0.00000000E+00  0.00000000E+00
  0.00000000E+00  0.00000000E+00  0.00000000E+00
  0.00000000E+00  0.00000000E+00  0.00000000E+00
  0.00000000E+00  0.00000000E+00  0.00000000E+00
  0.00000000E+00  0.00000000E+00  0.00000000E+00
  0.00000000E+00  0.00000000E+00  0.00000000E+00
  0.00000000E+00  0.00000000E+00  0.00000000E+00
  0.00000000E+00  0.00000000E+00  0.00000000E+00
  0.00000000E+00  0.00000000E+00  0.00000000E+00
  0.00000000E+00  0.00000000E+00  0.00000000E+00
  0.00000000E+00  0.00000000E+00  0.00000000E+00
  0.00000000E+00  0.00000000E+00  0.00000000E+00
  0.00000000E+00  0.00000000E+00  0.00000000E+00
  0.00000000E+00  0.00000000E+00  0.00000000E+00
  0.00000000E+00  0.00000000E+00  0.00000000E+00
  0.00000000E+00  0.00000000E+00  0.00000000E+00
  0.00000000E+00  0.00000000E+00  0.00000000E+00
  0.00000000E+00  0.00000000E+00  0.00000000E+00
  0.00000000E+00  0.00000000E+00  0.00000000E+00
  0.00000000E+00  0.00000000E+00  0.00000000E+00
  0.00000000E+00  0.00000000E+00  0.00000000E+00
  0.00000000E+00  0.00000000E+00  0.00000000E+00
  0.00000000E+00  0.00000000E+00  0.00000000E+00
  0.00000000E+00  0.00000000E+00  0.00000000E+00
  0.00000000E+00  0.00000000E+00  0.00000000E+00
  0.00000000E+00  0.00000000E+00  0.00000000E+00
  0.00000000E+00  0.00000000E+00  0.00000000E+00
  0.00000000E+00  0.00000000E+00  0.00000000E+00
  0.00000000E+00  0.00000000E+00  0.00000000E+00
  0.00000000E+00  0.00000000E+00  0.00000000E+00
  0.00000000E+00  0.00000000E+00  0.00000000E+00
  0.00000000E+00  0.00000000E+00  0.00000000E+00
  0.00000000E+00  0.00000000E+00  0.00000000E+00
  0.00000000E+00  0.00000000E+00  0.00000000E+00
  0.00000000E+00  0.00000000E+00  0.00000000E+00
  0.00000000E+00  0.00000000E+00  0.00000000E+00
  0.00000000E+00  0.00000000E+00  0.00000000E+00
  0.00000000E+00  0.00000000E+00  0.00000000E+00
