 H Cu                                   
   1.00000000000000     
    10.2710469276006560    0.0000000000000000    0.0000000000000006
     2.5677617319001635    6.2897060242006209    0.0000000000000005
     0.0000000000000000    0.0000000000000000   30.0000000000000000
   H    Cu
     2    48
Selective dynamics
Direct
  0.2310688547067636  0.3124839221227635  0.3398194279987161   T   T   T
  0.7689350737172793  0.6874611013399943  0.6601881656272082   T   T   T
  0.1445774579189943  0.1688427233846372  0.3647009261265253   T   T   T
  0.6436295611653671  0.1693422651026659  0.3658452675033728   T   T   T
  0.6863718371889462  0.5020539781420819  0.3877838583296801   T   T   T
  0.9341379245807778  0.5022628144443589  0.3883529592056525   T   T   T
  0.8948341012978485  0.1669515887838134  0.3658937452738638   T   T   T
  0.3931404198332882  0.1732029059212829  0.3643168899182558   T   T   T
  0.4787726720046073  0.8342128845749172  0.4113689503561144   T   T   T
  0.7289136469269858  0.8323555419092113  0.4116468621424116   T   T   T
  0.2282351456963399  0.8312132770788593  0.4115972257022671   T   T   T
  0.9803882602870975  0.8299079986446397  0.4114014951727753   T   T   T
  0.2708272740316886  0.1666729488154246  0.4382458528902404   F   F   F
  0.5208272740316886  0.1666729488154246  0.4382458528902404   F   F   F
  0.1859271725958657  0.5017447110030261  0.3851462781729393   T   T   T
  0.4377215407832284  0.5039782573784014  0.3887330869510518   T   T   T
  0.3124939406983529  0.5000062821487603  0.4629541516756959   F   F   F
  0.5624939406983529  0.5000062821487603  0.4629541516756959   F   F   F
  0.0624939406983529  0.5000062821487603  0.4629541516756959   F   F   F
  0.8124939406983529  0.5000062821487603  0.4629541516756959   F   F   F
  0.3541606073650172  0.8333396154820960  0.4876624504611513   F   F   F
  0.1041606073650172  0.8333396154820960  0.4876624504611513   F   F   F
  0.8541606073650172  0.8333396154820960  0.4876624504611513   F   F   F
  0.6041606073650172  0.8333396154820960  0.4876624504611513   F   F   F
  0.8958272740316886  0.1666729488154246  0.5123707492466139   F   F   F
  0.6458272740316886  0.1666729488154246  0.5123707492466139   F   F   F
  0.1458272740316886  0.1666729488154246  0.5123707492466139   F   F   F
  0.3958272740316886  0.1666729488154246  0.5123707492466139   F   F   F
  0.4374939406983529  0.5000062821487603  0.5370790480320693   F   F   F
  0.1874939406983529  0.5000062821487603  0.5370790480320693   F   F   F
  0.0208272740316886  0.1666729488154246  0.4382458528902404   F   F   F
  0.7708272740316886  0.1666729488154246  0.4382458528902404   F   F   F
  0.6874939406983529  0.5000062821487603  0.5370790480320693   F   F   F
  0.9374939406983529  0.5000062821487603  0.5370790480320693   F   F   F
  0.4791606073650172  0.8333396154820960  0.5617873468175247   F   F   F
  0.7291606073650172  0.8333396154820960  0.5617873468175247   F   F   F
  0.5212168547565467  0.1657943581846504  0.5886604428089152   T   T   T
  0.2710797273421154  0.1676399482712208  0.5883835319453671   T   T   T
  0.9791606073650172  0.8333396154820960  0.5617873468175247   F   F   F
  0.2291606073650172  0.8333396154820960  0.5617873468175247   F   F   F
  0.8140644609788141  0.4982509745489299  0.6148709712151728   T   T   T
  0.5622697391842302  0.4960109177808571  0.6112983660092969   T   T   T
  0.3136205154207410  0.4979368684413865  0.6122459717232529   T   T   T
  0.0658591905213186  0.4977219437867708  0.6116770688187282   T   T   T
  0.6068442552012955  0.8267976309255001  0.6357085523406540   T   T   T
  0.8554212045395377  0.8311534676903993  0.6353266211547914   T   T   T
  0.0196059261606096  0.1700807094224288  0.5886282873303069   T   T   T
  0.7717525210445423  0.1687868835717894  0.5884308593549865   T   T   T
  0.3563607239553452  0.8306462108131576  0.6341862268010241   T   T   T
  0.1051636550984697  0.8330323180813268  0.6341379838572542   T   T   T
 
  0.00000000E+00  0.00000000E+00  0.00000000E+00
  0.00000000E+00  0.00000000E+00  0.00000000E+00
  0.00000000E+00  0.00000000E+00  0.00000000E+00
  0.00000000E+00  0.00000000E+00  0.00000000E+00
  0.00000000E+00  0.00000000E+00  0.00000000E+00
  0.00000000E+00  0.00000000E+00  0.00000000E+00
  0.00000000E+00  0.00000000E+00  0.00000000E+00
  0.00000000E+00  0.00000000E+00  0.00000000E+00
  0.00000000E+00  0.00000000E+00  0.00000000E+00
  0.00000000E+00  0.00000000E+00  0.00000000E+00
  0.00000000E+00  0.00000000E+00  0.00000000E+00
  0.00000000E+00  0.00000000E+00  0.00000000E+00
  0.00000000E+00  0.00000000E+00  0.00000000E+00
  0.00000000E+00  0.00000000E+00  0.00000000E+00
  0.00000000E+00  0.00000000E+00  0.00000000E+00
  0.00000000E+00  0.00000000E+00  0.00000000E+00
  0.00000000E+00  0.00000000E+00  0.00000000E+00
  0.00000000E+00  0.00000000E+00  0.00000000E+00
  0.00000000E+00  0.00000000E+00  0.00000000E+00
  0.00000000E+00  0.00000000E+00  0.00000000E+00
  0.00000000E+00  0.00000000E+00  0.00000000E+00
  0.00000000E+00  0.00000000E+00  0.00000000E+00
  0.00000000E+00  0.00000000E+00  0.00000000E+00
  0.00000000E+00  0.00000000E+00  0.00000000E+00
  0.00000000E+00  0.00000000E+00  0.00000000E+00
  0.00000000E+00  0.00000000E+00  0.00000000E+00
  0.00000000E+00  0.00000000E+00  0.00000000E+00
  0.00000000E+00  0.00000000E+00  0.00000000E+00
  0.00000000E+00  0.00000000E+00  0.00000000E+00
  0.00000000E+00  0.00000000E+00  0.00000000E+00
  0.00000000E+00  0.00000000E+00  0.00000000E+00
  0.00000000E+00  0.00000000E+00  0.00000000E+00
  0.00000000E+00  0.00000000E+00  0.00000000E+00
  0.00000000E+00  0.00000000E+00  0.00000000E+00
  0.00000000E+00  0.00000000E+00  0.00000000E+00
  0.00000000E+00  0.00000000E+00  0.00000000E+00
  0.00000000E+00  0.00000000E+00  0.00000000E+00
  0.00000000E+00  0.00000000E+00  0.00000000E+00
  0.00000000E+00  0.00000000E+00  0.00000000E+00
  0.00000000E+00  0.00000000E+00  0.00000000E+00
  0.00000000E+00  0.00000000E+00  0.00000000E+00
  0.00000000E+00  0.00000000E+00  0.00000000E+00
  0.00000000E+00  0.00000000E+00  0.00000000E+00
  0.00000000E+00  0.00000000E+00  0.00000000E+00
  0.00000000E+00  0.00000000E+00  0.00000000E+00
  0.00000000E+00  0.00000000E+00  0.00000000E+00
  0.00000000E+00  0.00000000E+00  0.00000000E+00
  0.00000000E+00  0.00000000E+00  0.00000000E+00
  0.00000000E+00  0.00000000E+00  0.00000000E+00
  0.00000000E+00  0.00000000E+00  0.00000000E+00
