 H Cu 
 1.0000000000000000
    10.2710469276006560    0.0000000000000000    0.0000000000000006
     2.5677617319001635    6.2897060242006209    0.0000000000000005
     0.0000000000000000    0.0000000000000000   23.0000000000000000
 H   Cu 
   2  48
Selective dynamics
Cartesian
  3.1768393536481851  1.9603481707413752  5.1797578514849487   T   T   T
  9.6619617047441970  4.3289237808497179 14.8192461572820555   T   T   T
  1.9132165571405155  1.0597725190578156  5.9458864810728560   T   T   T
  7.0482191206057418  1.0681918012347762  5.9799416869756188   T   T   T
  8.3388198606227153  3.1546365255942201  6.6285410207112809   T   T   T
 10.8827788147407194  3.1566326280833343  6.6490247958643955   T   T   T
  9.6180025288267892  1.0537892849842252  5.9790389646144888   T   T   T
  4.4848048537731886  1.0869843898223888  5.9370330926659545   T   T   T
  7.0599430920260540  5.2488362810265130  7.3360242214199864   T   T   T
  9.6239402206262774  5.2365788437485552  7.3434846530481463   T   T   T
  4.4806943055647919  5.2275667319048340  7.3430192083002828   T   T   T
 12.1983297222135274  5.2190891640533170  7.3340924025192331   T   T   T
  3.2097021648752233  1.0482843373667552  8.1468775910907709   F   F   F
  5.7774638967753873  1.0482843373667552  8.1468775910907709   F   F   F
  3.1990516978644856  3.1586120205592505  6.5552337169168347   T   T   T
  5.7891283236058353  3.1667864472076626  6.6596661909701620   T   T   T
  4.4935830308252864  3.1448530121003104  8.8881265546544341   F   F   F
  7.0613447627254509  3.1448530121003104  8.8881265546544341   F   F   F
  1.9258212989251229  3.1448530121003104  8.8881265546544341   F   F   F
  9.6291064946256135  3.1448530121003104  8.8881265546544341   F   F   F
  5.7774638967753500  5.2414216868338652  9.6293755182180991   F   F   F
  3.2097021648751864  5.2414216868338652  9.6293755182180991   F   F   F
 10.9129873605756789  5.2414216868338652  9.6293755182180991   F   F   F
  8.3452256286755144  5.2414216868338652  9.6293755182180991   F   F   F
  9.6291064946256331  1.0482843373667552 10.3706244817819027   F   F   F
  7.0613447627254686  1.0482843373667552 10.3706244817819027   F   F   F
  1.9258212989251411  1.0482843373667552 10.3706244817819027   F   F   F
  4.4935830308253051  1.0482843373667552 10.3706244817819027   F   F   F
  5.7774638967753695  3.1448530121003104 11.1118734453455659   F   F   F
  3.2097021648752047  3.1448530121003104 11.1118734453455659   F   F   F
  0.6419404329750591  1.0482843373667552  8.1468775910907691   F   F   F
  8.3452256286755517  1.0482843373667552  8.1468775910907709   F   F   F
  8.3452256286755322  3.1448530121003104 11.1118734453455659   F   F   F
 10.9129873605756966  3.1448530121003104 11.1118734453455659   F   F   F
  7.0613447627254322  5.2414216868338652 11.8531224089092291   F   F   F
  9.6291064946255958  5.2414216868338652 11.8531224089092291   F   F   F
  5.7788502761624869  1.0407907174363111 12.6637695250500091   T   T   T
  3.2149069482432897  1.0529638731436677 12.6563516365407818   T   T   T
 12.1968682265257602  5.2414216868338652 11.8531224089092309   F   F   F
  4.4935830308252687  5.2414216868338652 11.8531224089092291   F   F   F
  9.6397650587998100  3.1310013629944460 13.4441795501965338   T   T   T
  7.0496517897667665  3.1227485347752100 13.3402957143315675   T   T   T
  4.4999968853069410  3.1349402204428745 13.3713177574178026   T   T   T
  1.9560321857022407  3.1329044946105307 13.3508327152065362   T   T   T
  8.3538715798423535  5.2026719189341017 14.0627137952863954   T   T   T
 10.9257231072341963  5.2298479147598504 14.0538618005497646   T   T   T
  0.6405101454794984  1.0703884144853106 12.6656846078318885   T   T   T
  8.3580649535496008  1.0619995508102040 12.6567686704072422   T   T   T
  5.7905363222088271  5.2213398005335137 14.0200449991043694   T   T   T
  3.2208498307167885  5.2357221429986325 14.0209471072754219   T   T   T
