 H  C  O Cu                             
   1.00000000000000     
    10.2710469276006560    0.0000000000000000    0.0000000000000006
     2.5677617319001635    6.2897060242006209    0.0000000000000005
     0.0000000000000000    0.0000000000000000   30.0000000000000000
   H    C    O    Cu
     2     4     4    48
Selective dynamics
Direct
  0.1859452965198317  0.1718628514316900  0.2408206822899263   T   T   T
  0.8140195678371502  0.8281640655861338  0.7591824132017196   T   T   T
  0.8022523440786631  0.8307707930651386  0.6949332339101950   T   T   T
  0.1976947017582582  0.1692703917040690  0.3050659336831901   T   T   T
  0.6588791802818283  0.8304401693952361  0.6989978231889723   T   T   T
  0.3410980058178701  0.1695721388579494  0.3010036111120405   T   T   T
  0.1288529001034535  0.1677579023928991  0.2666355932407728   T   T   T
  0.4002071686545525  0.1611960635333887  0.2643253545009018   T   T   T
  0.5997793822772824  0.8387777427983635  0.7356739888106056   T   T   T
  0.8711191696239767  0.8322855452324929  0.7333703824437947   T   T   T
  0.1346135807670238  0.1669696383064889  0.3643183577934468   T   T   T
  0.4029887485297593  0.1687357106858936  0.3626618121822658   T   T   T
  0.6852812746571411  0.5046659844329396  0.3879301749259333   T   T   T
  0.9351172852698700  0.5030306457846294  0.3888639067941119   T   T   T
  0.6457028735500646  0.1725597042872200  0.3658792621715102   T   T   T
  0.8892776970597652  0.1710786413952169  0.3660853350460446   T   T   T
  0.3124965692478412  0.5000210128637335  0.4629380646063197   F   F   F
  0.0624965692478412  0.5000210128637335  0.4629380646063197   F   F   F
  0.5624965692478412  0.5000210128637335  0.4629380646063197   F   F   F
  0.8124965692478412  0.5000210128637335  0.4629380646063197   F   F   F
  0.3541632359145055  0.8333543461970692  0.4876463633917751   F   F   F
  0.1041632359145055  0.8333543461970692  0.4876463633917751   F   F   F
  0.1869816878585578  0.4994232223093374  0.3882162900853383   T   T   T
  0.4365755272395909  0.5026226587651400  0.3886731469062385   T   T   T
  0.2287473920096899  0.8327488334746082  0.4115058757858971   T   T   T
  0.7285507309136954  0.8333580107956623  0.4114838731567277   T   T   T
  0.9799479520189951  0.8321127865365451  0.4113638278908057   T   T   T
  0.4779406794029413  0.8351549313260699  0.4114074145886322   T   T   T
  0.2708299025811769  0.1666876795303978  0.4382297658208572   F   F   F
  0.5208299025811769  0.1666876795303978  0.4382297658208572   F   F   F
  0.0208299025811769  0.1666876795303978  0.4382297658208572   F   F   F
  0.7708299025811769  0.1666876795303978  0.4382297658208572   F   F   F
  0.6874965692478412  0.5000210128637335  0.5370629609626789   F   F   F
  0.9374965692478412  0.5000210128637335  0.5370629609626789   F   F   F
  0.1874965692478412  0.5000210128637335  0.5370629609626789   F   F   F
  0.4374965692478412  0.5000210128637335  0.5370629609626789   F   F   F
  0.6458299025811769  0.1666876795303978  0.5123546621772235   F   F   F
  0.3958299025811769  0.1666876795303978  0.5123546621772235   F   F   F
  0.1458299025811769  0.1666876795303978  0.5123546621772235   F   F   F
  0.8958299025811769  0.1666876795303978  0.5123546621772235   F   F   F
  0.6041632359145055  0.8333543461970692  0.4876463633917751   F   F   F
  0.8541632359145055  0.8333543461970692  0.4876463633917751   F   F   F
  0.4791632359145055  0.8333543461970692  0.5617712597481344   F   F   F
  0.7291632359145055  0.8333543461970692  0.5617712597481344   F   F   F
  0.5220627296180597  0.1648658882503559  0.5885946973299071   T   T   T
  0.2714472068059972  0.1666722326568978  0.5885135255264321   T   T   T
  0.9791632359145055  0.8333543461970692  0.5617712597481344   F   F   F
  0.2291632359145055  0.8333543461970692  0.5617712597481344   F   F   F
  0.3542818114623280  0.8274818803270959  0.6341214413685373   T   T   T
  0.1107186369366671  0.8289522297609339  0.6339167106243964   T   T   T
  0.8653844867481688  0.8330554916910065  0.6356869801695076   T   T   T
  0.5969842576968534  0.8312915620005557  0.6373413510473808   T   T   T
  0.5634005907983637  0.4974175787114842  0.6113226363772191   T   T   T
  0.8129883473404833  0.5006263640813464  0.6117842173484844   T   T   T
  0.0648675228507547  0.4970033311781181  0.6111340293878555   T   T   T
  0.3147068781052297  0.4953545994444487  0.6120722087427138   T   T   T
  0.7712383854056841  0.1672914419512576  0.5884955693240203   T   T   T
  0.0200407849975713  0.1679273190098645  0.5886358269968026   T   T   T
 
  0.00000000E+00  0.00000000E+00  0.00000000E+00
  0.00000000E+00  0.00000000E+00  0.00000000E+00
  0.00000000E+00  0.00000000E+00  0.00000000E+00
  0.00000000E+00  0.00000000E+00  0.00000000E+00
  0.00000000E+00  0.00000000E+00  0.00000000E+00
  0.00000000E+00  0.00000000E+00  0.00000000E+00
  0.00000000E+00  0.00000000E+00  0.00000000E+00
  0.00000000E+00  0.00000000E+00  0.00000000E+00
  0.00000000E+00  0.00000000E+00  0.00000000E+00
  0.00000000E+00  0.00000000E+00  0.00000000E+00
  0.00000000E+00  0.00000000E+00  0.00000000E+00
  0.00000000E+00  0.00000000E+00  0.00000000E+00
  0.00000000E+00  0.00000000E+00  0.00000000E+00
  0.00000000E+00  0.00000000E+00  0.00000000E+00
  0.00000000E+00  0.00000000E+00  0.00000000E+00
  0.00000000E+00  0.00000000E+00  0.00000000E+00
  0.00000000E+00  0.00000000E+00  0.00000000E+00
  0.00000000E+00  0.00000000E+00  0.00000000E+00
  0.00000000E+00  0.00000000E+00  0.00000000E+00
  0.00000000E+00  0.00000000E+00  0.00000000E+00
  0.00000000E+00  0.00000000E+00  0.00000000E+00
  0.00000000E+00  0.00000000E+00  0.00000000E+00
  0.00000000E+00  0.00000000E+00  0.00000000E+00
  0.00000000E+00  0.00000000E+00  0.00000000E+00
  0.00000000E+00  0.00000000E+00  0.00000000E+00
  0.00000000E+00  0.00000000E+00  0.00000000E+00
  0.00000000E+00  0.00000000E+00  0.00000000E+00
  0.00000000E+00  0.00000000E+00  0.00000000E+00
  0.00000000E+00  0.00000000E+00  0.00000000E+00
  0.00000000E+00  0.00000000E+00  0.00000000E+00
  0.00000000E+00  0.00000000E+00  0.00000000E+00
  0.00000000E+00  0.00000000E+00  0.00000000E+00
  0.00000000E+00  0.00000000E+00  0.00000000E+00
  0.00000000E+00  0.00000000E+00  0.00000000E+00
  0.00000000E+00  0.00000000E+00  0.00000000E+00
  0.00000000E+00  0.00000000E+00  0.00000000E+00
  0.00000000E+00  0.00000000E+00  0.00000000E+00
  0.00000000E+00  0.00000000E+00  0.00000000E+00
  0.00000000E+00  0.00000000E+00  0.00000000E+00
  0.00000000E+00  0.00000000E+00  0.00000000E+00
  0.00000000E+00  0.00000000E+00  0.00000000E+00
  0.00000000E+00  0.00000000E+00  0.00000000E+00
  0.00000000E+00  0.00000000E+00  0.00000000E+00
  0.00000000E+00  0.00000000E+00  0.00000000E+00
  0.00000000E+00  0.00000000E+00  0.00000000E+00
  0.00000000E+00  0.00000000E+00  0.00000000E+00
  0.00000000E+00  0.00000000E+00  0.00000000E+00
  0.00000000E+00  0.00000000E+00  0.00000000E+00
  0.00000000E+00  0.00000000E+00  0.00000000E+00
  0.00000000E+00  0.00000000E+00  0.00000000E+00
  0.00000000E+00  0.00000000E+00  0.00000000E+00
  0.00000000E+00  0.00000000E+00  0.00000000E+00
  0.00000000E+00  0.00000000E+00  0.00000000E+00
  0.00000000E+00  0.00000000E+00  0.00000000E+00
  0.00000000E+00  0.00000000E+00  0.00000000E+00
  0.00000000E+00  0.00000000E+00  0.00000000E+00
  0.00000000E+00  0.00000000E+00  0.00000000E+00
  0.00000000E+00  0.00000000E+00  0.00000000E+00
