 C  O Cu 
 1.0000000000000000
    10.2710469276006560    0.0000000000000000    0.0000000000000006
     2.5677617319001635    6.2897060242006209    0.0000000000000005
     0.0000000000000000    0.0000000000000000   32.6149543968023465
 C   O   Cu 
   4   4  48
Selective dynamics
Cartesian
  3.3131233830236217  1.8889120935033514 10.4733308911959302   T   T   T
  1.6017596532321201  1.2510202789011196 10.4640901466799505   T   T   T
 11.2370490062686983  5.0386857452995013 22.1508642501223960   T   T   T
  9.5256852764771978  4.4007939306972688 22.1416235056064181   T   T   T
  3.9289704721777254  2.0484432187593771  9.2878849064058251   T   T   T
  1.0403342019692268  0.8863350333616145  9.2971256509217994   T   T   T
 11.7984744575315919  5.4033709908390062 23.3178287458805471   T   T   T
  8.9098381873230927  4.2412628054412433 23.3270694903965214   T   T   T
  2.0644765361996518  1.0278910186021633 12.2306078988008764   T   T   T
  4.6322382680998215  1.0278910186021633 12.2306078988008800   T   T   T
  7.1999999999999824  1.0278910186021633 12.2306078988008800   T   T   T
  9.7677617319001442  1.0278910186021633 12.2306078988008800   T   T   T
  8.4838808659500682  3.1244596933357114 12.9718568623645734   T   T   T
 11.0516425978502220  3.1244596933357114 12.9718568623645734   T   T   T
  3.3483574021497380  3.1244596933357114 12.9718568623645734   T   T   T
  5.9161191340499029  3.1244596933357114 12.9718568623645734   T   T   T
  4.6322382680998189  3.1244596933357114 15.1956037530556376   F   F   F
  2.0644765361996509  3.1244596933357114 15.1956037530556376   F   F   F
  7.1999999999999833  3.1244596933357114 15.1956037530556411   F   F   F
  9.7677617319001460  3.1244596933357114 15.1956037530556411   F   F   F
  5.9161191340498940  5.2210283680692466 15.9368527166193239   F   F   F
  3.3483574021497313  5.2210283680692466 15.9368527166193239   F   F   F
 11.0516425978502220  5.2210283680692466 15.9368527166193257   F   F   F
  8.4838808659500593  5.2210283680692466 15.9368527166193275   F   F   F
  4.6322382680998206  5.2210283680692466 13.7131058259282579   T   T   T
  9.7677617319001442  5.2210283680692466 13.7131058259282614   T   T   T
 12.3355234638003033  5.2210283680692466 13.7131058259282632   T   T   T
  7.1999999999999815  5.2210283680692466 13.7131058259282650   T   T   T
  3.3483574021497380  1.0278910186021601 14.4543547894919477   F   F   F
  5.9161191340499046  1.0278910186021601 14.4543547894919477   F   F   F
  0.7805956702495687  1.0278910186021601 14.4543547894919495   F   F   F
  8.4838808659500735  1.0278910186021601 14.4543547894919495   F   F   F
  8.4838808659500700  3.1244596933357114 17.4193506437467107   F   F   F
 11.0516425978502220  3.1244596933357114 17.4193506437467107   F   F   F
  3.3483574021497420  3.1244596933357114 17.4193506437467107   F   F   F
  5.9161191340499073  3.1244596933357114 17.4193506437467107   F   F   F
  7.1999999999999860  1.0278910186021615 16.6781016801830191   F   F   F
  4.6322382680998206  1.0278910186021615 16.6781016801830191   F   F   F
  2.0644765361996491  1.0278910186021615 16.6781016801830191   F   F   F
  9.7677617319001477  1.0278910186021615 16.6781016801830191   F   F   F
  7.1999999999999833  5.2210283680692466 18.1605996073103988   F   F   F
  9.7677617319001477  5.2210283680692466 18.1605996073103988   F   F   F
 12.3355234638003068  5.2210283680692466 18.1605996073103988   F   F   F
  4.6322382680998206  5.2210283680692466 18.1605996073103988   F   F   F
  5.9161191340499055  1.0278910186021615 18.9018485708741046   T   T   T
  3.3483574021497402  1.0278910186021615 18.9018485708741046   T   T   T
  0.7805956702495690  1.0278910186021615 18.9018485708741046   T   T   T
  8.4838808659500717  1.0278910186021615 18.9018485708741046   T   T   T
  5.9161191340498966  5.2210283680692475 20.3843464980014666   T   T   T
  3.3483574021497344  5.2210283680692475 20.3843464980014666   T   T   T
 11.0516425978502255  5.2210283680692475 20.3843464980014666   T   T   T
  8.4838808659500611  5.2210283680692475 20.3843464980014666   T   T   T
  7.1999999999999815  3.1244596933357118 19.6430975344377785   T   T   T
  9.7677617319001460  3.1244596933357118 19.6430975344377785   T   T   T
  2.0644765361996504  3.1244596933357118 19.6430975344377785   T   T   T
  4.6322382680998206  3.1244596933357118 19.6430975344377785   T   T   T
