 H  C  O Cu                             
   1.00000000000000     
    10.2710469276006560    0.0000000000000000    0.0000000000000006
     2.5677617319001635    6.2897060242006209    0.0000000000000005
     0.0000000000000000    0.0000000000000000   20.0000000000000000
   H    C    O    Cu
     4     2     2    48
Selective dynamics
Direct
  0.4736192640001785  0.0812918952022183  0.1125706120708102   T   T   T
  0.4568926326038217  0.3387965289952921  0.1792748904069840   T   T   T
  0.5437808371064647  0.6611107172726249  0.8207797267161125   T   T   T
  0.5271812520923508  0.9185245600958603  0.8874754908630392   T   T   T
  0.5428986528044643  0.8045690795561444  0.7948031111935282   T   T   T
  0.4578135699175251  0.1952648142693573  0.2052360187715909   T   T   T
  0.4675257821896405  0.0394794933728227  0.1585519442499325   T   T   T
  0.5330845689139796  0.9605045304337192  0.8415253824553041   T   T   T
  0.1436345922378661  0.1676180922463860  0.2991368958324619   T   T   T
  0.6372309721520332  0.1654901407948278  0.2921082110977063   T   T   T
  0.8913727640990134  0.1640494608650651  0.2977911279199602   T   T   T
  0.3842187656036414  0.1788790922833312  0.2939246250354979   T   T   T
  0.6880567866592574  0.4913556452742310  0.3314351046357379   T   T   T
  0.9347339066548511  0.4946614769006239  0.3309457189151339   T   T   T
  0.1846231203770393  0.4995637097486653  0.3326080792221166   T   T   T
  0.4372367265309456  0.5074037082183139  0.3353360732516795   T   T   T
  0.3125000000000000  0.5000000000000000  0.4444063277327217   F   F   F
  0.5625000000000000  0.5000000000000000  0.4444063277327217   F   F   F
  0.0625000000000000  0.5000000000000000  0.4444063277327217   F   F   F
  0.8125000000000000  0.5000000000000000  0.4444063277327217   F   F   F
  0.3541666666666643  0.8333333333333357  0.4814687759109049   F   F   F
  0.1041666666666643  0.8333333333333357  0.4814687759109049   F   F   F
  0.8541666666666643  0.8333333333333357  0.4814687759109049   F   F   F
  0.6041666666666643  0.8333333333333357  0.4814687759109049   F   F   F
  0.4793248178200111  0.8345864413318512  0.3657141392646632   T   T   T
  0.7293656290376134  0.8286027716439200  0.3662316173581787   T   T   T
  0.2282217799153400  0.8298320333289054  0.3676400864529009   T   T   T
  0.9797424119165825  0.8270912809211750  0.3668633414277740   T   T   T
  0.2708333333333357  0.1666666666666643  0.4073438795545385   F   F   F
  0.5208333333333357  0.1666666666666643  0.4073438795545385   F   F   F
  0.0208333333333357  0.1666666666666643  0.4073438795545385   F   F   F
  0.7708333333333357  0.1666666666666643  0.4073438795545385   F   F   F
  0.6875000000000000  0.5000000000000000  0.5555936722672783   F   F   F
  0.9375000000000000  0.5000000000000000  0.5555936722672783   F   F   F
  0.1875000000000000  0.5000000000000000  0.5555936722672783   F   F   F
  0.4375000000000000  0.5000000000000000  0.5555936722672783   F   F   F
  0.3958333333333357  0.1666666666666643  0.5185312240890951   F   F   F
  0.1458333333333357  0.1666666666666643  0.5185312240890951   F   F   F
  0.6458333333333357  0.1666666666666643  0.5185312240890951   F   F   F
  0.8958333333333357  0.1666666666666643  0.5185312240890951   F   F   F
  0.4791666666666643  0.8333333333333357  0.5926561204454615   F   F   F
  0.7291666666666643  0.8333333333333357  0.5926561204454615   F   F   F
  0.9791666666666643  0.8333333333333357  0.5926561204454615   F   F   F
  0.2291666666666643  0.8333333333333357  0.5926561204454615   F   F   F
  0.5206642024959867  0.1654391099130843  0.6342748318489384   T   T   T
  0.2706319589034775  0.1714050867131936  0.6337589151461459   T   T   T
  0.0202592361882001  0.1728685744128406  0.6331357826603217   T   T   T
  0.7717781497486041  0.1701421574176958  0.6323591011555076   T   T   T
  0.3626855542698372  0.8344495022725905  0.7077980767735892   T   T   T
  0.1086235160821341  0.8358811006431440  0.7022131092490559   T   T   T
  0.8564072433914005  0.8323188498806802  0.7008681684006215   T   T   T
  0.6157131405768843  0.8212031018259912  0.7060931262984137   T   T   T
  0.0652841612291806  0.5052769596031278  0.6690495862294322   T   T   T
  0.3119648106736807  0.5085701245405886  0.6685666199714375   T   T   T
  0.5627622911258706  0.4925821995869709  0.6646686346477326   T   T   T
  0.8153924755265485  0.5003710794533193  0.6673797345111753   T   T   T
 
  0.00000000E+00  0.00000000E+00  0.00000000E+00
  0.00000000E+00  0.00000000E+00  0.00000000E+00
  0.00000000E+00  0.00000000E+00  0.00000000E+00
  0.00000000E+00  0.00000000E+00  0.00000000E+00
  0.00000000E+00  0.00000000E+00  0.00000000E+00
  0.00000000E+00  0.00000000E+00  0.00000000E+00
  0.00000000E+00  0.00000000E+00  0.00000000E+00
  0.00000000E+00  0.00000000E+00  0.00000000E+00
  0.00000000E+00  0.00000000E+00  0.00000000E+00
  0.00000000E+00  0.00000000E+00  0.00000000E+00
  0.00000000E+00  0.00000000E+00  0.00000000E+00
  0.00000000E+00  0.00000000E+00  0.00000000E+00
  0.00000000E+00  0.00000000E+00  0.00000000E+00
  0.00000000E+00  0.00000000E+00  0.00000000E+00
  0.00000000E+00  0.00000000E+00  0.00000000E+00
  0.00000000E+00  0.00000000E+00  0.00000000E+00
  0.00000000E+00  0.00000000E+00  0.00000000E+00
  0.00000000E+00  0.00000000E+00  0.00000000E+00
  0.00000000E+00  0.00000000E+00  0.00000000E+00
  0.00000000E+00  0.00000000E+00  0.00000000E+00
  0.00000000E+00  0.00000000E+00  0.00000000E+00
  0.00000000E+00  0.00000000E+00  0.00000000E+00
  0.00000000E+00  0.00000000E+00  0.00000000E+00
  0.00000000E+00  0.00000000E+00  0.00000000E+00
  0.00000000E+00  0.00000000E+00  0.00000000E+00
  0.00000000E+00  0.00000000E+00  0.00000000E+00
  0.00000000E+00  0.00000000E+00  0.00000000E+00
  0.00000000E+00  0.00000000E+00  0.00000000E+00
  0.00000000E+00  0.00000000E+00  0.00000000E+00
  0.00000000E+00  0.00000000E+00  0.00000000E+00
  0.00000000E+00  0.00000000E+00  0.00000000E+00
  0.00000000E+00  0.00000000E+00  0.00000000E+00
  0.00000000E+00  0.00000000E+00  0.00000000E+00
  0.00000000E+00  0.00000000E+00  0.00000000E+00
  0.00000000E+00  0.00000000E+00  0.00000000E+00
  0.00000000E+00  0.00000000E+00  0.00000000E+00
  0.00000000E+00  0.00000000E+00  0.00000000E+00
  0.00000000E+00  0.00000000E+00  0.00000000E+00
  0.00000000E+00  0.00000000E+00  0.00000000E+00
  0.00000000E+00  0.00000000E+00  0.00000000E+00
  0.00000000E+00  0.00000000E+00  0.00000000E+00
  0.00000000E+00  0.00000000E+00  0.00000000E+00
  0.00000000E+00  0.00000000E+00  0.00000000E+00
  0.00000000E+00  0.00000000E+00  0.00000000E+00
  0.00000000E+00  0.00000000E+00  0.00000000E+00
  0.00000000E+00  0.00000000E+00  0.00000000E+00
  0.00000000E+00  0.00000000E+00  0.00000000E+00
  0.00000000E+00  0.00000000E+00  0.00000000E+00
  0.00000000E+00  0.00000000E+00  0.00000000E+00
  0.00000000E+00  0.00000000E+00  0.00000000E+00
  0.00000000E+00  0.00000000E+00  0.00000000E+00
  0.00000000E+00  0.00000000E+00  0.00000000E+00
  0.00000000E+00  0.00000000E+00  0.00000000E+00
  0.00000000E+00  0.00000000E+00  0.00000000E+00
  0.00000000E+00  0.00000000E+00  0.00000000E+00
  0.00000000E+00  0.00000000E+00  0.00000000E+00
