 H Cu                                   
   1.00000000000000     
    10.2710469276006560    0.0000000000000000    0.0000000000000006
     2.5677617319001635    6.2897060242006209    0.0000000000000005
     0.0000000000000000    0.0000000000000000   30.0000000000000000
   H    Cu
     2    48
Selective dynamics
Direct
  0.2319027102970174  0.3104854041576725  0.3384563356256157   T   T   T
  0.7681011194928394  0.6894608886827664  0.6615543792263641   T   T   T
  0.1429505625656433  0.1705216249053229  0.3650010375743467   T   T   T
  0.6436088210750949  0.1711118889666256  0.3658491746692069   T   T   T
  0.6869062839457186  0.5009215335531484  0.3875734431442772   T   T   T
  0.9341788894213204  0.5013460117137912  0.3883478546345061   T   T   T
  0.8939150057850556  0.1695454217995462  0.3658469010642855   T   T   T
  0.3942357056183852  0.1739491449813911  0.3648550158977037   T   T   T
  0.4787923383740077  0.8349023812211113  0.4109013566128031   T   T   T
  0.7287199371996285  0.8325755107644082  0.4112315710520548   T   T   T
  0.2285914543254639  0.8317074402504268  0.4113155126889958   T   T   T
  0.9801242411613830  0.8301745678053188  0.4109779036778339   T   T   T
  0.2708272740316886  0.1666729488154246  0.4382458528902404   F   F   F
  0.5208272740316886  0.1666729488154246  0.4382458528902404   F   F   F
  0.1855128297963087  0.5030378507445044  0.3857080283066103   T   T   T
  0.4379397165552451  0.5038320722468440  0.3886571990280942   T   T   T
  0.3124939406983529  0.5000062821487603  0.4629541516756959   F   F   F
  0.5624939406983529  0.5000062821487603  0.4629541516756959   F   F   F
  0.0624939406983529  0.5000062821487603  0.4629541516756959   F   F   F
  0.8124939406983529  0.5000062821487603  0.4629541516756959   F   F   F
  0.3541606073650172  0.8333396154820960  0.4876624504611513   F   F   F
  0.1041606073650172  0.8333396154820960  0.4876624504611513   F   F   F
  0.8541606073650172  0.8333396154820960  0.4876624504611513   F   F   F
  0.6041606073650172  0.8333396154820960  0.4876624504611513   F   F   F
  0.8958272740316886  0.1666729488154246  0.5123707492466139   F   F   F
  0.6458272740316886  0.1666729488154246  0.5123707492466139   F   F   F
  0.1458272740316886  0.1666729488154246  0.5123707492466139   F   F   F
  0.3958272740316886  0.1666729488154246  0.5123707492466139   F   F   F
  0.4374939406983529  0.5000062821487603  0.5370790480320693   F   F   F
  0.1874939406983529  0.5000062821487603  0.5370790480320693   F   F   F
  0.0208272740316886  0.1666729488154246  0.4382458528902404   F   F   F
  0.7708272740316886  0.1666729488154246  0.4382458528902404   F   F   F
  0.6874939406983529  0.5000062821487603  0.5370790480320693   F   F   F
  0.9374939406983529  0.5000062821487603  0.5370790480320693   F   F   F
  0.4791606073650172  0.8333396154820960  0.5617873468175247   F   F   F
  0.7291606073650172  0.8333396154820960  0.5617873468175247   F   F   F
  0.5211977147212726  0.1651050026702330  0.5891302683766189   T   T   T
  0.2712720813769443  0.1674212177696502  0.5888007807232931   T   T   T
  0.9791606073650172  0.8333396154820960  0.5617873468175247   F   F   F
  0.2291606073650172  0.8333396154820960  0.5617873468175247   F   F   F
  0.8144786426520352  0.4969592335698000  0.6143112908571903   T   T   T
  0.5620506475456133  0.4961602134902133  0.6113757277620328   T   T   T
  0.3130858142735892  0.4990705649173779  0.6124562564272115   T   T   T
  0.0658179644306246  0.4986407962323630  0.6116843926748796   T   T   T
  0.6057528247734276  0.8260479678216676  0.6351701194036464   T   T   T
  0.8570458043039969  0.8294724973732859  0.6350250514230996   T   T   T
  0.0198685894484937  0.1698175558170479  0.5890539895993250   T   T   T
  0.7713963849475831  0.1682941885201135  0.5887141003367666   T   T   T
  0.3563815492691005  0.8288783199986397  0.6341839412254833   T   T   T
  0.1060807994493082  0.8304406143213221  0.6341865437524717   T   T   T
 
  0.00000000E+00  0.00000000E+00  0.00000000E+00
  0.00000000E+00  0.00000000E+00  0.00000000E+00
  0.00000000E+00  0.00000000E+00  0.00000000E+00
  0.00000000E+00  0.00000000E+00  0.00000000E+00
  0.00000000E+00  0.00000000E+00  0.00000000E+00
  0.00000000E+00  0.00000000E+00  0.00000000E+00
  0.00000000E+00  0.00000000E+00  0.00000000E+00
  0.00000000E+00  0.00000000E+00  0.00000000E+00
  0.00000000E+00  0.00000000E+00  0.00000000E+00
  0.00000000E+00  0.00000000E+00  0.00000000E+00
  0.00000000E+00  0.00000000E+00  0.00000000E+00
  0.00000000E+00  0.00000000E+00  0.00000000E+00
  0.00000000E+00  0.00000000E+00  0.00000000E+00
  0.00000000E+00  0.00000000E+00  0.00000000E+00
  0.00000000E+00  0.00000000E+00  0.00000000E+00
  0.00000000E+00  0.00000000E+00  0.00000000E+00
  0.00000000E+00  0.00000000E+00  0.00000000E+00
  0.00000000E+00  0.00000000E+00  0.00000000E+00
  0.00000000E+00  0.00000000E+00  0.00000000E+00
  0.00000000E+00  0.00000000E+00  0.00000000E+00
  0.00000000E+00  0.00000000E+00  0.00000000E+00
  0.00000000E+00  0.00000000E+00  0.00000000E+00
  0.00000000E+00  0.00000000E+00  0.00000000E+00
  0.00000000E+00  0.00000000E+00  0.00000000E+00
  0.00000000E+00  0.00000000E+00  0.00000000E+00
  0.00000000E+00  0.00000000E+00  0.00000000E+00
  0.00000000E+00  0.00000000E+00  0.00000000E+00
  0.00000000E+00  0.00000000E+00  0.00000000E+00
  0.00000000E+00  0.00000000E+00  0.00000000E+00
  0.00000000E+00  0.00000000E+00  0.00000000E+00
  0.00000000E+00  0.00000000E+00  0.00000000E+00
  0.00000000E+00  0.00000000E+00  0.00000000E+00
  0.00000000E+00  0.00000000E+00  0.00000000E+00
  0.00000000E+00  0.00000000E+00  0.00000000E+00
  0.00000000E+00  0.00000000E+00  0.00000000E+00
  0.00000000E+00  0.00000000E+00  0.00000000E+00
  0.00000000E+00  0.00000000E+00  0.00000000E+00
  0.00000000E+00  0.00000000E+00  0.00000000E+00
  0.00000000E+00  0.00000000E+00  0.00000000E+00
  0.00000000E+00  0.00000000E+00  0.00000000E+00
  0.00000000E+00  0.00000000E+00  0.00000000E+00
  0.00000000E+00  0.00000000E+00  0.00000000E+00
  0.00000000E+00  0.00000000E+00  0.00000000E+00
  0.00000000E+00  0.00000000E+00  0.00000000E+00
  0.00000000E+00  0.00000000E+00  0.00000000E+00
  0.00000000E+00  0.00000000E+00  0.00000000E+00
  0.00000000E+00  0.00000000E+00  0.00000000E+00
  0.00000000E+00  0.00000000E+00  0.00000000E+00
  0.00000000E+00  0.00000000E+00  0.00000000E+00
  0.00000000E+00  0.00000000E+00  0.00000000E+00
