 H Cu 
 1.0000000000000000
    10.2710469276006560    0.0000000000000000    0.0000000000000006
     2.5677617319001635    6.2897060242006209    0.0000000000000005
     0.0000000000000000    0.0000000000000000   30.0000000000000000
 H   Cu 
   2  48
Selective dynamics
Cartesian
  3.1767932493377753  1.9603876836102736 10.1802558471014457   T   T   T
  9.6619156004337867  4.3289632937186173 19.8197441528985543   T   T   T
  1.9131704528301059  1.0598120319267139 10.9463844766893530   T   T   T
  7.0481730162953324  1.0682313141036746 10.9804396825921167   T   T   T
  8.3387737563123050  3.1546760384631192 11.6290390163277788   T   T   T
 10.8827327104303091  3.1566721409522334 11.6495227914808943   T   T   T
  9.6179564245163789  1.0538287978531236 10.9795369602309876   T   T   T
  4.4847587494627792  1.0870239026912873 10.9375310882824515   T   T   T
  7.0598969877156446  5.2488757938954125 12.3365222170364870   T   T   T
  9.6238941163158671  5.2366183566174547 12.3439826486646442   T   T   T
  4.4806482012543825  5.2276062447737326 12.3435172039167806   T   T   T
 12.1982836179031171  5.2191286769222156 12.3345903981357310   T   T   T
  3.2096560605648135  1.0483238502356538 13.1473755867072697   F   F   F
  5.7774177924649779  1.0483238502356538 13.1473755867072697   F   F   F
  3.1990055935540758  3.1586515334281495 11.5557317125333334   T   T   T
  5.7890822192954259  3.1668259600765616 11.6601641865866608   T   T   T
  4.4935369265148770  3.1448925249692095 13.8886245502709329   F   F   F
  7.0612986584150415  3.1448925249692095 13.8886245502709329   F   F   F
  1.9257751946147130  3.1448925249692095 13.8886245502709329   F   F   F
  9.6290603903152032  3.1448925249692095 13.8886245502709329   F   F   F
  5.7774177924649415  5.2414611997027638 14.6298735138345961   F   F   F
  3.2096560605647766  5.2414611997027638 14.6298735138345961   F   F   F
 10.9129412562652686  5.2414611997027638 14.6298735138345943   F   F   F
  8.3451795243651041  5.2414611997027638 14.6298735138345961   F   F   F
  9.6290603903152228  1.0483238502356538 15.3711224773984032   F   F   F
  7.0612986584150592  1.0483238502356538 15.3711224773984032   F   F   F
  1.9257751946147312  1.0483238502356538 15.3711224773984032   F   F   F
  4.4935369265148957  1.0483238502356538 15.3711224773984032   F   F   F
  5.7774177924649601  3.1448925249692095 16.1123714409620646   F   F   F
  3.2096560605647948  3.1448925249692095 16.1123714409620646   F   F   F
  0.6418943286646493  1.0483238502356538 13.1473755867072661   F   F   F
  8.3451795243651414  1.0483238502356538 13.1473755867072697   F   F   F
  8.3451795243651219  3.1448925249692095 16.1123714409620646   F   F   F
 10.9129412562652863  3.1448925249692095 16.1123714409620646   F   F   F
  7.0612986584150228  5.2414611997027638 16.8536204045257278   F   F   F
  9.6290603903151855  5.2414611997027638 16.8536204045257278   F   F   F
  5.7788041718520775  1.0408302303052097 17.6642675206665061   T   T   T
  3.2148608439328799  1.0530033860125660 17.6568496321572788   T   T   T
 12.1968221222153499  5.2414611997027638 16.8536204045257314   F   F   F
  4.4935369265148593  5.2414611997027638 16.8536204045257278   F   F   F
  9.6397189544893997  3.1310408758633450 18.4446775458130325   T   T   T
  7.0496056854563571  3.1227880476441090 18.3407937099480662   T   T   T
  4.4999507809965316  3.1349797333117730 18.3718157530343014   T   T   T
  1.9559860813918308  3.1329440074794297 18.3513307108230350   T   T   T
  8.3538254755319432  5.2027114318030012 19.0632117909028942   T   T   T
 10.9256770029237860  5.2298874276287499 19.0543597961662634   T   T   T
  0.6404640411690886  1.0704279273542092 17.6661826034483873   T   T   T
  8.3580188492391905  1.0620390636791024 17.6572666660237410   T   T   T
  5.7904902178984177  5.2213793134024122 19.0205429947208664   T   T   T
  3.2208037264063787  5.2357616558675311 19.0214451028919207   T   T   T
