Cu                                      
   1.00000000000000     
    10.2710469276006560    0.0000000000000000    0.0000000000000006
     2.5677617319001635    6.2897060242006209    0.0000000000000005
     0.0000000000000000    0.0000000000000000   40.0000000000000000
   Cu
    48
Selective dynamics
Direct
  0.4791813809195062  0.8333333333333357  0.5463271358903086   F   F   F
  0.7291813809195062  0.8333333333333357  0.5463271358903086   F   F   F
  0.9791813809195062  0.8333333333333357  0.5463271358903086   F   F   F
  0.2291813809195062  0.8333333333333357  0.5463271358903086   F   F   F
  0.5627353437947414  0.4995243938423143  0.5841017420399293   T   T   T
  0.8127352119694027  0.4995242883595623  0.5841017569752883   T   T   T
  0.0627353687296659  0.4995244004151579  0.5841017544508640   T   T   T
  0.3127352171725232  0.4995244061209673  0.5841017617579232   T   T   T
  0.7703607363216339  0.1690095234154878  0.5664414418201863   T   T   T
  0.0203606689078631  0.1690094749878590  0.5664414468829790   T   T   T
  0.2703606881354828  0.1690096779262646  0.5664414143882900   T   T   T
  0.5203606622307698  0.1690095533576227  0.5664414232319414   T   T   T
  0.6045599535594559  0.8319389542375950  0.6007874094572515   T   T   T
  0.8545600371577553  0.8319387563070100  0.6007873941357460   T   T   T
  0.1045599252626241  0.8319387900500825  0.6007873861534796   T   T   T
  0.3545598678783689  0.8319388949315989  0.6007873669862336   T   T   T
  0.8125147142528419  0.5000000000000000  0.4722022395339422   F   F   F
  0.0625147142528419  0.5000000000000000  0.4722022395339422   F   F   F
  0.3125147142528419  0.5000000000000000  0.4722022395339422   F   F   F
  0.5625147142528419  0.5000000000000000  0.4722022395339422   F   F   F
  0.8958480475861776  0.1666666666666643  0.5092646877121183   F   F   F
  0.1458480475861776  0.1666666666666643  0.5092646877121183   F   F   F
  0.3958480475861776  0.1666666666666643  0.5092646877121183   F   F   F
  0.6458480475861776  0.1666666666666643  0.5092646877121183   F   F   F
  0.6041813809195062  0.8333333333333357  0.4907334636230303   F   F   F
  0.8541813809195062  0.8333333333333357  0.4907334636230303   F   F   F
  0.1041813809195062  0.8333333333333357  0.4907334636230303   F   F   F
  0.3541813809195062  0.8333333333333357  0.4907334636230303   F   F   F
  0.6875147142528419  0.5000000000000000  0.5277959118012134   F   F   F
  0.9375147142528419  0.5000000000000000  0.5277959118012134   F   F   F
  0.1875147142528419  0.5000000000000000  0.5277959118012134   F   F   F
  0.4375147142528419  0.5000000000000000  0.5277959118012134   F   F   F
  0.6454723193807509  0.1680465450934052  0.3992112392442218   T   T   T
  0.8954723128380810  0.1680464977797976  0.3992112307432930   T   T   T
  0.1454723049017804  0.1680464289674980  0.3992111994723972   T   T   T
  0.3954722065454702  0.1680465576441431  0.3992112175229003   T   T   T
  0.7296507803713681  0.8310259074401063  0.4335552603053393   T   T   T
  0.9796507365720094  0.8310260264405747  0.4335552316933598   T   T   T
  0.2296507295619736  0.8310260389991919  0.4335552287239697   T   T   T
  0.4796506634226966  0.8310260723601572  0.4335552263971586   T   T   T
  0.6873447428505183  0.5004416417201175  0.4158947948080990   T   T   T
  0.9373448470327485  0.5004415453603203  0.4158948098352928   T   T   T
  0.1873446915864353  0.5004415716882128  0.4158947976008709   T   T   T
  0.4373447570616165  0.5004417327454250  0.4158947955965983   T   T   T
  0.5208480475861776  0.1666666666666643  0.4536710154448471   F   F   F
  0.7708480475861776  0.1666666666666643  0.4536710154448471   F   F   F
  0.0208480475861776  0.1666666666666643  0.4536710154448471   F   F   F
  0.2708480475861776  0.1666666666666643  0.4536710154448471   F   F   F
 
  0.00000000E+00  0.00000000E+00  0.00000000E+00
  0.00000000E+00  0.00000000E+00  0.00000000E+00
  0.00000000E+00  0.00000000E+00  0.00000000E+00
  0.00000000E+00  0.00000000E+00  0.00000000E+00
  0.00000000E+00  0.00000000E+00  0.00000000E+00
  0.00000000E+00  0.00000000E+00  0.00000000E+00
  0.00000000E+00  0.00000000E+00  0.00000000E+00
  0.00000000E+00  0.00000000E+00  0.00000000E+00
  0.00000000E+00  0.00000000E+00  0.00000000E+00
  0.00000000E+00  0.00000000E+00  0.00000000E+00
  0.00000000E+00  0.00000000E+00  0.00000000E+00
  0.00000000E+00  0.00000000E+00  0.00000000E+00
  0.00000000E+00  0.00000000E+00  0.00000000E+00
  0.00000000E+00  0.00000000E+00  0.00000000E+00
  0.00000000E+00  0.00000000E+00  0.00000000E+00
  0.00000000E+00  0.00000000E+00  0.00000000E+00
  0.00000000E+00  0.00000000E+00  0.00000000E+00
  0.00000000E+00  0.00000000E+00  0.00000000E+00
  0.00000000E+00  0.00000000E+00  0.00000000E+00
  0.00000000E+00  0.00000000E+00  0.00000000E+00
  0.00000000E+00  0.00000000E+00  0.00000000E+00
  0.00000000E+00  0.00000000E+00  0.00000000E+00
  0.00000000E+00  0.00000000E+00  0.00000000E+00
  0.00000000E+00  0.00000000E+00  0.00000000E+00
  0.00000000E+00  0.00000000E+00  0.00000000E+00
  0.00000000E+00  0.00000000E+00  0.00000000E+00
  0.00000000E+00  0.00000000E+00  0.00000000E+00
  0.00000000E+00  0.00000000E+00  0.00000000E+00
  0.00000000E+00  0.00000000E+00  0.00000000E+00
  0.00000000E+00  0.00000000E+00  0.00000000E+00
  0.00000000E+00  0.00000000E+00  0.00000000E+00
  0.00000000E+00  0.00000000E+00  0.00000000E+00
  0.00000000E+00  0.00000000E+00  0.00000000E+00
  0.00000000E+00  0.00000000E+00  0.00000000E+00
  0.00000000E+00  0.00000000E+00  0.00000000E+00
  0.00000000E+00  0.00000000E+00  0.00000000E+00
  0.00000000E+00  0.00000000E+00  0.00000000E+00
  0.00000000E+00  0.00000000E+00  0.00000000E+00
  0.00000000E+00  0.00000000E+00  0.00000000E+00
  0.00000000E+00  0.00000000E+00  0.00000000E+00
  0.00000000E+00  0.00000000E+00  0.00000000E+00
  0.00000000E+00  0.00000000E+00  0.00000000E+00
  0.00000000E+00  0.00000000E+00  0.00000000E+00
  0.00000000E+00  0.00000000E+00  0.00000000E+00
  0.00000000E+00  0.00000000E+00  0.00000000E+00
  0.00000000E+00  0.00000000E+00  0.00000000E+00
  0.00000000E+00  0.00000000E+00  0.00000000E+00
  0.00000000E+00  0.00000000E+00  0.00000000E+00
