 H  C Cu                                
   1.00000000000000     
    10.2710469276006560    0.0000000000000000    0.0000000000000006
     2.5677617319001635    6.2897060242006209    0.0000000000000005
     0.0000000000000000    0.0000000000000000   30.0000000000000000
   H    C    Cu
     2     2    48
Selective dynamics
Direct
  0.2064939946298506  0.3787971158923629  0.2980557135403792   T   T   T
  0.7891265948422207  0.6285825610021269  0.7018691375882783   T   T   T
  0.2233298189938990  0.3327846555712215  0.3331463931693007   T   T   T
  0.7742344580083451  0.6709316034235276  0.6665444099447956   T   T   T
  0.1418382867701863  0.1582669252324806  0.3631705355310901   T   T   T
  0.3966930506102625  0.1682827192451065  0.3627404732515236   T   T   T
  0.6444858560104827  0.1669689678800781  0.3654051139675674   T   T   T
  0.8934863481925539  0.1663524640180090  0.3654586489274288   T   T   T
  0.2294653707746614  0.8324217974996996  0.4121453638305282   T   T   T
  0.7296661670280464  0.8311491892453163  0.4115624170826163   T   T   T
  0.9795305281440625  0.8330574656703238  0.4118235413776987   T   T   T
  0.4794790910893806  0.8344855442335377  0.4112451528006317   T   T   T
  0.6866446457698235  0.5012844850202525  0.3878420577946418   T   T   T
  0.9374281151720942  0.5005328161087254  0.3874059846628736   T   T   T
  0.1834570339146170  0.5162532417676066  0.3841254978834490   T   T   T
  0.4372572602705183  0.5027884513581617  0.3880033920051606   T   T   T
  0.3125227806840485  0.4999886977673142  0.4626631437468376   F   F   F
  0.0625227806840485  0.4999886977673142  0.4626631437468376   F   F   F
  0.5625227806840485  0.4999886977673142  0.4626631437468376   F   F   F
  0.8125227806840485  0.4999886977673142  0.4626631437468376   F   F   F
  0.3541894473507128  0.8333220311006500  0.4873714425322930   F   F   F
  0.1041894473507128  0.8333220311006500  0.4873714425322930   F   F   F
  0.8541894473507128  0.8333220311006500  0.4873714425322930   F   F   F
  0.6041894473507128  0.8333220311006500  0.4873714425322930   F   F   F
  0.8958561140173842  0.1666553644339785  0.5120797413177414   F   F   F
  0.1458561140173842  0.1666553644339785  0.5120797413177414   F   F   F
  0.3958561140173842  0.1666553644339785  0.5120797413177414   F   F   F
  0.6458561140173842  0.1666553644339785  0.5120797413177414   F   F   F
  0.2708561140173842  0.1666553644339785  0.4379548449613822   F   F   F
  0.5208561140173842  0.1666553644339785  0.4379548449613822   F   F   F
  0.0208561140173842  0.1666553644339785  0.4379548449613822   F   F   F
  0.7708561140173842  0.1666553644339785  0.4379548449613822   F   F   F
  0.6875227806840485  0.4999886977673142  0.5367880401031968   F   F   F
  0.9375227806840485  0.4999886977673142  0.5367880401031968   F   F   F
  0.1875227806840485  0.4999886977673142  0.5367880401031968   F   F   F
  0.4375227806840485  0.4999886977673142  0.5367880401031968   F   F   F
  0.4791894473507128  0.8333220311006500  0.5614963388886594   F   F   F
  0.7291894473507128  0.8333220311006500  0.5614963388886594   F   F   F
  0.9791894473507128  0.8333220311006500  0.5614963388886594   F   F   F
  0.2291894473507128  0.8333220311006500  0.5614963388886594   F   F   F
  0.3135561486699425  0.4992042945255193  0.6116525450462325   T   T   T
  0.0629359834304849  0.4997908551574919  0.6119598711532623   T   T   T
  0.8166973577382601  0.4848099048960754  0.6159002275533496   T   T   T
  0.5630182439858118  0.4980955784154768  0.6115620645971486   T   T   T
  0.5206696077335022  0.1666316989935810  0.5880641179378873   T   T   T
  0.2706758446952591  0.1690399244512340  0.5879158327425458   T   T   T
  0.0204505919374718  0.1675787573019827  0.5876506846895884   T   T   T
  0.7708238059734165  0.1681346910594747  0.5874197082760897   T   T   T
  0.3551957134313062  0.8335766721688622  0.6340971583760423   T   T   T
  0.1063586273418587  0.8342753402776500  0.6339855142595303   T   T   T
  0.8581989351692751  0.8417443014345833  0.6363200189691441   T   T   T
  0.6020511760569205  0.8346741432634537  0.6365432398805549   T   T   T
 
  0.00000000E+00  0.00000000E+00  0.00000000E+00
  0.00000000E+00  0.00000000E+00  0.00000000E+00
  0.00000000E+00  0.00000000E+00  0.00000000E+00
  0.00000000E+00  0.00000000E+00  0.00000000E+00
  0.00000000E+00  0.00000000E+00  0.00000000E+00
  0.00000000E+00  0.00000000E+00  0.00000000E+00
  0.00000000E+00  0.00000000E+00  0.00000000E+00
  0.00000000E+00  0.00000000E+00  0.00000000E+00
  0.00000000E+00  0.00000000E+00  0.00000000E+00
  0.00000000E+00  0.00000000E+00  0.00000000E+00
  0.00000000E+00  0.00000000E+00  0.00000000E+00
  0.00000000E+00  0.00000000E+00  0.00000000E+00
  0.00000000E+00  0.00000000E+00  0.00000000E+00
  0.00000000E+00  0.00000000E+00  0.00000000E+00
  0.00000000E+00  0.00000000E+00  0.00000000E+00
  0.00000000E+00  0.00000000E+00  0.00000000E+00
  0.00000000E+00  0.00000000E+00  0.00000000E+00
  0.00000000E+00  0.00000000E+00  0.00000000E+00
  0.00000000E+00  0.00000000E+00  0.00000000E+00
  0.00000000E+00  0.00000000E+00  0.00000000E+00
  0.00000000E+00  0.00000000E+00  0.00000000E+00
  0.00000000E+00  0.00000000E+00  0.00000000E+00
  0.00000000E+00  0.00000000E+00  0.00000000E+00
  0.00000000E+00  0.00000000E+00  0.00000000E+00
  0.00000000E+00  0.00000000E+00  0.00000000E+00
  0.00000000E+00  0.00000000E+00  0.00000000E+00
  0.00000000E+00  0.00000000E+00  0.00000000E+00
  0.00000000E+00  0.00000000E+00  0.00000000E+00
  0.00000000E+00  0.00000000E+00  0.00000000E+00
  0.00000000E+00  0.00000000E+00  0.00000000E+00
  0.00000000E+00  0.00000000E+00  0.00000000E+00
  0.00000000E+00  0.00000000E+00  0.00000000E+00
  0.00000000E+00  0.00000000E+00  0.00000000E+00
  0.00000000E+00  0.00000000E+00  0.00000000E+00
  0.00000000E+00  0.00000000E+00  0.00000000E+00
  0.00000000E+00  0.00000000E+00  0.00000000E+00
  0.00000000E+00  0.00000000E+00  0.00000000E+00
  0.00000000E+00  0.00000000E+00  0.00000000E+00
  0.00000000E+00  0.00000000E+00  0.00000000E+00
  0.00000000E+00  0.00000000E+00  0.00000000E+00
  0.00000000E+00  0.00000000E+00  0.00000000E+00
  0.00000000E+00  0.00000000E+00  0.00000000E+00
  0.00000000E+00  0.00000000E+00  0.00000000E+00
  0.00000000E+00  0.00000000E+00  0.00000000E+00
  0.00000000E+00  0.00000000E+00  0.00000000E+00
  0.00000000E+00  0.00000000E+00  0.00000000E+00
  0.00000000E+00  0.00000000E+00  0.00000000E+00
  0.00000000E+00  0.00000000E+00  0.00000000E+00
  0.00000000E+00  0.00000000E+00  0.00000000E+00
  0.00000000E+00  0.00000000E+00  0.00000000E+00
  0.00000000E+00  0.00000000E+00  0.00000000E+00
  0.00000000E+00  0.00000000E+00  0.00000000E+00
