Cu 
 1.0000000000000000
    10.2710469276006560    0.0000000000000000    0.0000000000000006
     2.5677617319001635    6.2897060242006209    0.0000000000000005
     0.0000000000000000    0.0000000000000000   40.0000000000000000
 Cu 
  48
Selective dynamics
Cartesian
  7.0614975854169959  5.2414216868338652 21.8530712397345148   F   F   F
  9.6292593173171603  5.2414216868338652 21.8530712397345148   F   F   F
 12.1970210492173248  5.2414216868338652 21.8530712397345148   F   F   F
  4.4937358535168324  5.2414216868338652 21.8530712397345148   F   F   F
  7.0625711084106566  3.1402298171661869 23.3624026958253275   T   T   T
  9.6303304313083036  3.1402282660395424 23.3624030177330901   T   T   T
  1.9270478364650145  3.1402290101162387 23.3624032447434580   T   T   T
  4.4948078345712279  3.1402295376853298 23.3624038984372753   T   T   T
  8.3463581213082847  1.0627246819997831 22.6555801808096682   T   T   T
  0.6430713642253250  1.0627245258898506 22.6555798756928048   T   T   T
  3.2108340399209720  1.0627252491713639 22.6555794875007024   T   T   T
  5.7785952750539771  1.0627242798467682 22.6555796034408807   T   T   T
  8.3457924585442349  5.2360994377407897 24.0307853145848433   T   T   T
 10.9135544955171522  5.2360983998569539 24.0307853173530894   T   T   T
  3.2102691250599142  5.2360982931562949 24.0307845801923285   T   T   T
  5.7780306373986265  5.2360992342309034 24.0307843368852865   T   T   T
  9.6292593173171781  3.1448530121003104 18.8880753854799011   F   F   F
  1.9259741216166861  3.1448530121003104 18.8880753854799011   F   F   F
  4.4937358535168501  3.1448530121003104 18.8880753854799011   F   F   F
  7.0614975854170137  3.1448530121003104 18.8880753854799011   F   F   F
  9.6292593173171976  1.0482843373667552 20.3705733126070925   F   F   F
  1.9259741216167048  1.0482843373667552 20.3705733126070925   F   F   F
  4.4937358535168679  1.0482843373667552 20.3705733126070925   F   F   F
  7.0614975854170323  1.0482843373667552 20.3705733126070925   F   F   F
  8.3453784513670790  5.2414216868338652 19.6293243490436140   F   F   F
 10.9131401832672434  5.2414216868338652 19.6293243490436140   F   F   F
  3.2098549875667497  5.2414216868338652 19.6293243490436140   F   F   F
  5.7776167194669137  5.2414216868338652 19.6293243490436140   F   F   F
  8.3453784513670968  3.1448530121003104 21.1118222761708054   F   F   F
 10.9131401832672612  3.1448530121003104 21.1118222761708054   F   F   F
  3.2098549875667683  3.1448530121003104 21.1118222761708054   F   F   F
  5.7776167194669314  3.1448530121003104 21.1118222761708054   F   F   F
  7.0610502443916756  1.0535089448325872 15.9692160636647138   T   T   T
  9.6288113222129557  1.0535086007396419 15.9692153245130815   T   T   T
  1.9255266322719238  1.0535085999266811 15.9692146826469106   T   T   T
  4.4932876580341023  1.0535090898245216 15.9692154237741661   T   T   T
  9.6281545605909571  5.2274183142446669 17.3442534991324209   T   T   T
 12.1959157382811618  5.2274185926228185 17.3442523726943634   T   T   T
  4.4926310053430649  5.2274192166275695 17.3442522549386382   T   T   T
  7.0603922502902323  5.2274190989193183 17.3442522271962964   T   T   T
  8.3448018137059776  3.1491079506121049 16.6373819347083831   T   T   T
 10.9125650892284671  3.1491076842839876 16.6373826049523004   T   T   T
  3.2092773049950472  3.1491071950725678 16.6373821217961684   T   T   T
  5.7770414124188525  3.1491081910676235 16.6373822374209581   T   T   T
  5.7776167194669501  1.0482843373667552 18.1468264219161952   F   F   F
  8.3453784513671163  1.0482843373667552 18.1468264219161952   F   F   F
  0.6420932556666226  1.0482843373667552 18.1468264219161917   F   F   F
  3.2098549875667866  1.0482843373667552 18.1468264219161917   F   F   F
