 H  C  O                                
   1.00000000000000     
    10.2710469276006560    0.0000000000000000    0.0000000000000006
     2.5677617319001635    6.2897060242006209    0.0000000000000005
     0.0000000000000000    0.0000000000000000   20.0000000000000000
   H    C    O 
     1     1     1
Direct
  0.5663940039388458  0.9935215726889456  0.8303878881630544
  0.6072455647378632  0.8249929718008010  0.8109018822860358
  0.6476287242562475  0.6745260559068933  0.8466933077190235
 
  0.00000000E+00  0.00000000E+00  0.00000000E+00
  0.00000000E+00  0.00000000E+00  0.00000000E+00
  0.00000000E+00  0.00000000E+00  0.00000000E+00
