 H  C  O Cu                             
   1.00000000000000     
    10.2710469276006560    0.0000000000000000    0.0000000000000006
     2.5677617319001635    6.2897060242006209    0.0000000000000005
     0.0000000000000000    0.0000000000000000   30.0000000000000000
   H    C    O    Cu
     2     2     2    48
Selective dynamics
Direct
  0.4359885661012456 -0.0031718120970735  0.2824471712800303   T   T   T
  0.5640065318132748  0.0031818205471310  0.7175439611566861   T   T   T
  0.6067950433830189  0.8384918541966869  0.7033136889014482   T   T   T
  0.3931941174768870  0.1615138844386289  0.2966787045464528   T   T   T
  0.3536276386614979  0.3106420070093038  0.2703063963797112   T   T   T
  0.6463512402403147  0.6893834110252099  0.7296881032959130   T   T   T
  0.1446065085394173  0.1701840785842551  0.3655508485366571   T   T   T
  0.6450229543912642  0.1707462035415852  0.3655193818793028   T   T   T
  0.4790594147854184  0.8339720905083372  0.4115925262274571   T   T   T
  0.7291383682217562  0.8322026885066125  0.4113115727673363   T   T   T
  0.8947120989201927  0.1708662416458309  0.3655050606997652   T   T   T
  0.3942691687760694  0.1712964766020628  0.3619520308535044   T   T   T
  0.6867704212378443  0.5025800771958795  0.3877553148508469   T   T   T
  0.9366556779660127  0.5022223418828352  0.3878070087150151   T   T   T
  0.1861424563391829  0.5029532150502392  0.3887451178185383   T   T   T
  0.4373471486108656  0.5022807532509432  0.3888029070878953   T   T   T
  0.3125013520641673  0.4999969479653643  0.4629303028390979   F   F   F
  0.5625013520641673  0.4999969479653643  0.4629303028390979   F   F   F
  0.0625013520641673  0.4999969479653643  0.4629303028390979   F   F   F
  0.8125013520641673  0.4999969479653643  0.4629303028390979   F   F   F
  0.3541680187308316  0.8333302812987000  0.4876386016245533   F   F   F
  0.1041680187308316  0.8333302812987000  0.4876386016245533   F   F   F
  0.8541680187308316  0.8333302812987000  0.4876386016245533   F   F   F
  0.6041680187308316  0.8333302812987000  0.4876386016245533   F   F   F
  0.8958346853975030  0.1666636146320286  0.5123469004100087   F   F   F
  0.6458346853975030  0.1666636146320286  0.5123469004100087   F   F   F
  0.2291609801465432  0.8323288250124825  0.4113203651681048   T   T   T
  0.9789715262780269  0.8326395071060315  0.4110498206670166   T   T   T
  0.2708346853975030  0.1666636146320286  0.4382220040536424   F   F   F
  0.5208346853975030  0.1666636146320286  0.4382220040536424   F   F   F
  0.0208346853975030  0.1666636146320286  0.4382220040536424   F   F   F
  0.7708346853975030  0.1666636146320286  0.4382220040536424   F   F   F
  0.6875013520641673  0.4999969479653643  0.5370551991954642   F   F   F
  0.9375013520641673  0.4999969479653643  0.5370551991954642   F   F   F
  0.1875013520641673  0.4999969479653643  0.5370551991954642   F   F   F
  0.4375013520641673  0.4999969479653643  0.5370551991954642   F   F   F
  0.3958346853975030  0.1666636146320286  0.5123469004100087   F   F   F
  0.1458346853975030  0.1666636146320286  0.5123469004100087   F   F   F
  0.4791680187308316  0.8333302812987000  0.5617634979809196   F   F   F
  0.7291680187308316  0.8333302812987000  0.5617634979809196   F   F   F
  0.8138604404642142  0.4970416880394967  0.6112450558391663   T   T   T
  0.5626560601118694  0.4977099264421654  0.6111873215618396   T   T   T
  0.9791680187308316  0.8333302812987000  0.5617634979809196   F   F   F
  0.2291680187308316  0.8333302812987000  0.5617634979809196   F   F   F
  0.5209447223154380  0.1660199749744710  0.5883947707817863   T   T   T
  0.2708646096396327  0.1677907532993478  0.5886749317314750   T   T   T
  0.0210305513937151  0.1673553619938242  0.5889368013695037   T   T   T
  0.7708435563295896  0.1676681552119207  0.5886660806292943   T   T   T
  0.3549772588528645  0.8292515626409170  0.6344716513203859   T   T   T
  0.1052918550065953  0.8291331546617758  0.6344858245675177   T   T   T
  0.8553961526317287  0.8298180902741796  0.6344404962811589   T   T   T
  0.6057327037705015  0.8287070937647509  0.6380363567852925   T   T   T
  0.0633473313974996  0.4977735789890501  0.6121829612827160   T   T   T
  0.3132313919228120  0.4974180232100942  0.6122347377292863   T   T   T
 
  0.00000000E+00  0.00000000E+00  0.00000000E+00
  0.00000000E+00  0.00000000E+00  0.00000000E+00
  0.00000000E+00  0.00000000E+00  0.00000000E+00
  0.00000000E+00  0.00000000E+00  0.00000000E+00
  0.00000000E+00  0.00000000E+00  0.00000000E+00
  0.00000000E+00  0.00000000E+00  0.00000000E+00
  0.00000000E+00  0.00000000E+00  0.00000000E+00
  0.00000000E+00  0.00000000E+00  0.00000000E+00
  0.00000000E+00  0.00000000E+00  0.00000000E+00
  0.00000000E+00  0.00000000E+00  0.00000000E+00
  0.00000000E+00  0.00000000E+00  0.00000000E+00
  0.00000000E+00  0.00000000E+00  0.00000000E+00
  0.00000000E+00  0.00000000E+00  0.00000000E+00
  0.00000000E+00  0.00000000E+00  0.00000000E+00
  0.00000000E+00  0.00000000E+00  0.00000000E+00
  0.00000000E+00  0.00000000E+00  0.00000000E+00
  0.00000000E+00  0.00000000E+00  0.00000000E+00
  0.00000000E+00  0.00000000E+00  0.00000000E+00
  0.00000000E+00  0.00000000E+00  0.00000000E+00
  0.00000000E+00  0.00000000E+00  0.00000000E+00
  0.00000000E+00  0.00000000E+00  0.00000000E+00
  0.00000000E+00  0.00000000E+00  0.00000000E+00
  0.00000000E+00  0.00000000E+00  0.00000000E+00
  0.00000000E+00  0.00000000E+00  0.00000000E+00
  0.00000000E+00  0.00000000E+00  0.00000000E+00
  0.00000000E+00  0.00000000E+00  0.00000000E+00
  0.00000000E+00  0.00000000E+00  0.00000000E+00
  0.00000000E+00  0.00000000E+00  0.00000000E+00
  0.00000000E+00  0.00000000E+00  0.00000000E+00
  0.00000000E+00  0.00000000E+00  0.00000000E+00
  0.00000000E+00  0.00000000E+00  0.00000000E+00
  0.00000000E+00  0.00000000E+00  0.00000000E+00
  0.00000000E+00  0.00000000E+00  0.00000000E+00
  0.00000000E+00  0.00000000E+00  0.00000000E+00
  0.00000000E+00  0.00000000E+00  0.00000000E+00
  0.00000000E+00  0.00000000E+00  0.00000000E+00
  0.00000000E+00  0.00000000E+00  0.00000000E+00
  0.00000000E+00  0.00000000E+00  0.00000000E+00
  0.00000000E+00  0.00000000E+00  0.00000000E+00
  0.00000000E+00  0.00000000E+00  0.00000000E+00
  0.00000000E+00  0.00000000E+00  0.00000000E+00
  0.00000000E+00  0.00000000E+00  0.00000000E+00
  0.00000000E+00  0.00000000E+00  0.00000000E+00
  0.00000000E+00  0.00000000E+00  0.00000000E+00
  0.00000000E+00  0.00000000E+00  0.00000000E+00
  0.00000000E+00  0.00000000E+00  0.00000000E+00
  0.00000000E+00  0.00000000E+00  0.00000000E+00
  0.00000000E+00  0.00000000E+00  0.00000000E+00
  0.00000000E+00  0.00000000E+00  0.00000000E+00
  0.00000000E+00  0.00000000E+00  0.00000000E+00
  0.00000000E+00  0.00000000E+00  0.00000000E+00
  0.00000000E+00  0.00000000E+00  0.00000000E+00
  0.00000000E+00  0.00000000E+00  0.00000000E+00
  0.00000000E+00  0.00000000E+00  0.00000000E+00
