Cu48 C2 O2                              
   1.00000000000000     
    10.2710469276006560    0.0000000000000000    0.0000000000000006
     2.5677617319001635    6.2897060242006209    0.0000000000000005
     0.0000000000000000    0.0000000000000000   32.6149543968023465
   Cu   O    C 
    48     2     2
Selective dynamics
Direct
  0.4934768704689745  0.8300910007527449  0.5568181818181799   F   F   F
  0.7434768704689745  0.8300910007527449  0.5568181818181799   F   F   F
  0.9934768704689745  0.8300910007527449  0.5568181818181799   F   F   F
  0.2434768704689745  0.8300910007527449  0.5568181818181799   F   F   F
  0.5771452385140687  0.4949562932463344  0.6023410390933748   T   T   T
  0.8279296631598172  0.4942420224726200  0.6024526085605731   T   T   T
  0.0779278989942970  0.4943122167230995  0.6030286969044885   T   T   T
  0.3274991357269135  0.4946605515557275  0.6030204944179925   T   T   T
  0.7846810651989936  0.1646182964929931  0.5813630975144908   T   T   T
  0.0352671671736826  0.1642114634590865  0.5814143582256861   T   T   T
  0.2853066155954938  0.1646352277994236  0.5813962085704290   T   T   T
  0.5348833484353351  0.1647570424051688  0.5809025565792212   T   T   T
  0.6182870565680616  0.8319597246300433  0.6257151613014028   T   T   T
  0.8711358377779751  0.8281786677094103  0.6232892290909783   T   T   T
  0.1195590161645581  0.8272681437420456  0.6237890153999939   T   T   T
  0.3673696849478878  0.8273796608506645  0.6234313317288573   T   T   T
  0.8268102038023102  0.4967576674194092  0.4659090909090935   F   F   F
  0.0768102038023102  0.4967576674194092  0.4659090909090935   F   F   F
  0.3268102038023102  0.4967576674194092  0.4659090909090935   F   F   F
  0.5768102038023102  0.4967576674194092  0.4659090909090935   F   F   F
  0.9101435371356459  0.1634243340860735  0.5113636363636331   F   F   F
  0.1601435371356459  0.1634243340860735  0.5113636363636331   F   F   F
  0.4101435371356459  0.1634243340860735  0.5113636363636331   F   F   F
  0.6601435371356459  0.1634243340860735  0.5113636363636331   F   F   F
  0.6184768704689745  0.8300910007527449  0.4886363636363669   F   F   F
  0.8684768704689745  0.8300910007527449  0.4886363636363669   F   F   F
  0.1184768704689745  0.8300910007527449  0.4886363636363669   F   F   F
  0.3684768704689745  0.8300910007527449  0.4886363636363669   F   F   F
  0.7018102038023102  0.4967576674194092  0.5340909090909065   F   F   F
  0.9518102038023102  0.4967576674194092  0.5340909090909065   F   F   F
  0.2018102038023102  0.4967576674194092  0.5340909090909065   F   F   F
  0.4518102038023102  0.4967576674194092  0.5340909090909065   F   F   F
  0.6612099558884184  0.1661291951699207  0.3765660879483803   T   T   T
  0.9091324725372543  0.1661275826958715  0.3762109639374097   T   T   T
  0.1575373570646968  0.1652853568827891  0.3767095117257455   T   T   T
  0.4102983753230036  0.1616145013870948  0.3742832900081166   T   T   T
  0.7432855229072373  0.8288860985938470  0.4186105587601604   T   T   T
  0.9933257823179238  0.8292902176137988  0.4185995662196114   T   T   T
  0.2439450297282367  0.8288917943686444  0.4186466003333358   T   T   T
  0.4937343736915521  0.8287746181178275  0.4190885902394378   T   T   T
  0.7012147957992282  0.4987626022253206  0.3969769816036553   T   T   T
  0.9507390748281757  0.4991457108624054  0.3969675033124047   T   T   T
  0.2007206572833032  0.4992649314404517  0.3975607982955631   T   T   T
  0.4515357564314011  0.4985477518933968  0.3976691983364102   T   T   T
  0.5351435371356459  0.1634243340860735  0.4431818181818201   F   F   F
  0.7851435371356459  0.1634243340860735  0.4431818181818201   F   F   F
  0.0351435371356459  0.1634243340860735  0.4431818181818201   F   F   F
  0.2851435371356459  0.1634243340860735  0.4431818181818201   F   F   F
  0.6184049630249279  0.8302764303851581  0.7188949445691116   T   T   T
  0.4101975413070016  0.1632015436468058  0.2811000474793978   T   T   T
  0.6166853018922166  0.8380074172165309  0.6837438275984439   T   T   T
  0.4119065042418001  0.1555101748008484  0.3162610913880415   T   T   T
 
  0.00000000E+00  0.00000000E+00  0.00000000E+00
  0.00000000E+00  0.00000000E+00  0.00000000E+00
  0.00000000E+00  0.00000000E+00  0.00000000E+00
  0.00000000E+00  0.00000000E+00  0.00000000E+00
  0.00000000E+00  0.00000000E+00  0.00000000E+00
  0.00000000E+00  0.00000000E+00  0.00000000E+00
  0.00000000E+00  0.00000000E+00  0.00000000E+00
  0.00000000E+00  0.00000000E+00  0.00000000E+00
  0.00000000E+00  0.00000000E+00  0.00000000E+00
  0.00000000E+00  0.00000000E+00  0.00000000E+00
  0.00000000E+00  0.00000000E+00  0.00000000E+00
  0.00000000E+00  0.00000000E+00  0.00000000E+00
  0.00000000E+00  0.00000000E+00  0.00000000E+00
  0.00000000E+00  0.00000000E+00  0.00000000E+00
  0.00000000E+00  0.00000000E+00  0.00000000E+00
  0.00000000E+00  0.00000000E+00  0.00000000E+00
  0.00000000E+00  0.00000000E+00  0.00000000E+00
  0.00000000E+00  0.00000000E+00  0.00000000E+00
  0.00000000E+00  0.00000000E+00  0.00000000E+00
  0.00000000E+00  0.00000000E+00  0.00000000E+00
  0.00000000E+00  0.00000000E+00  0.00000000E+00
  0.00000000E+00  0.00000000E+00  0.00000000E+00
  0.00000000E+00  0.00000000E+00  0.00000000E+00
  0.00000000E+00  0.00000000E+00  0.00000000E+00
  0.00000000E+00  0.00000000E+00  0.00000000E+00
  0.00000000E+00  0.00000000E+00  0.00000000E+00
  0.00000000E+00  0.00000000E+00  0.00000000E+00
  0.00000000E+00  0.00000000E+00  0.00000000E+00
  0.00000000E+00  0.00000000E+00  0.00000000E+00
  0.00000000E+00  0.00000000E+00  0.00000000E+00
  0.00000000E+00  0.00000000E+00  0.00000000E+00
  0.00000000E+00  0.00000000E+00  0.00000000E+00
  0.00000000E+00  0.00000000E+00  0.00000000E+00
  0.00000000E+00  0.00000000E+00  0.00000000E+00
  0.00000000E+00  0.00000000E+00  0.00000000E+00
  0.00000000E+00  0.00000000E+00  0.00000000E+00
  0.00000000E+00  0.00000000E+00  0.00000000E+00
  0.00000000E+00  0.00000000E+00  0.00000000E+00
  0.00000000E+00  0.00000000E+00  0.00000000E+00
  0.00000000E+00  0.00000000E+00  0.00000000E+00
  0.00000000E+00  0.00000000E+00  0.00000000E+00
  0.00000000E+00  0.00000000E+00  0.00000000E+00
  0.00000000E+00  0.00000000E+00  0.00000000E+00
  0.00000000E+00  0.00000000E+00  0.00000000E+00
  0.00000000E+00  0.00000000E+00  0.00000000E+00
  0.00000000E+00  0.00000000E+00  0.00000000E+00
  0.00000000E+00  0.00000000E+00  0.00000000E+00
  0.00000000E+00  0.00000000E+00  0.00000000E+00
  0.00000000E+00  0.00000000E+00  0.00000000E+00
  0.00000000E+00  0.00000000E+00  0.00000000E+00
  0.00000000E+00  0.00000000E+00  0.00000000E+00
  0.00000000E+00  0.00000000E+00  0.00000000E+00
