 H  C  O Cu                             
   1.00000000000000     
    10.2710469276006560    0.0000000000000000    0.0000000000000006
     2.5677617319001635    6.2897060242006209    0.0000000000000005
     0.0000000000000000    0.0000000000000000   30.0000000000000000
   H    C    O    Cu
     2     4     4    48
Selective dynamics
Direct
  0.1981580902398608  0.1718130412268558  0.2394315738567532   T   T   T
  0.8018633148083167  0.8282156177532946  0.7605576077684661   T   T   T
  0.7963907089853980  0.8246602281163313  0.6962825419650709   T   T   T
  0.2033337373601792  0.1753448645481175  0.3037213203799130   T   T   T
  0.6581073999458564  0.8154716068221339  0.6995811435589561   T   T   T
  0.3420281513920592  0.1845604086687125  0.3003491728538821   T   T   T
  0.1392811459905543  0.1609778086656209  0.2641528307323312   T   T   T
  0.4015273505889363  0.1895849543051357  0.2637899004147453   T   T   T
  0.5985284970542564  0.8104302500455800  0.7362246692938414   T   T   T
  0.8608566029025705  0.8390623672139432  0.7359061613916261   T   T   T
  0.1364016171904410  0.1673823629550443  0.3628487239489467   T   T   T
  0.4033420959841834  0.1700458663656705  0.3622996538633414   T   T   T
  0.6854945681775846  0.5052802941830112  0.3878448059174039   T   T   T
  0.9365114351439412  0.5019964794764527  0.3888171917737676   T   T   T
  0.6467215866405357  0.1735882794080125  0.3658912034787434   T   T   T
  0.8897760505366324  0.1723028719510865  0.3661854515079769   T   T   T
  0.3124965692478412  0.5000210128637335  0.4629380646063197   F   F   F
  0.0624965692478412  0.5000210128637335  0.4629380646063197   F   F   F
  0.5624965692478412  0.5000210128637335  0.4629380646063197   F   F   F
  0.8124965692478412  0.5000210128637335  0.4629380646063197   F   F   F
  0.3541632359145055  0.8333543461970692  0.4876463633917751   F   F   F
  0.1041632359145055  0.8333543461970692  0.4876463633917751   F   F   F
  0.1877301149968098  0.4992719659451422  0.3884210297806520   T   T   T
  0.4368436013364324  0.5034628313346693  0.3888315719328765   T   T   T
  0.2284736539590044  0.8345675794689655  0.4113341925919711   T   T   T
  0.7289731626402395  0.8337195482355021  0.4112949679530498   T   T   T
  0.9802843792757130  0.8323267317902195  0.4111910717961590   T   T   T
  0.4779032945447239  0.8354158813234017  0.4114532843235912   T   T   T
  0.2708299025811769  0.1666876795303978  0.4382297658208572   F   F   F
  0.5208299025811769  0.1666876795303978  0.4382297658208572   F   F   F
  0.0208299025811769  0.1666876795303978  0.4382297658208572   F   F   F
  0.7708299025811769  0.1666876795303978  0.4382297658208572   F   F   F
  0.6874965692478412  0.5000210128637335  0.5370629609626789   F   F   F
  0.9374965692478412  0.5000210128637335  0.5370629609626789   F   F   F
  0.1874965692478412  0.5000210128637335  0.5370629609626789   F   F   F
  0.4374965692478412  0.5000210128637335  0.5370629609626789   F   F   F
  0.6458299025811769  0.1666876795303978  0.5123546621772235   F   F   F
  0.3958299025811769  0.1666876795303978  0.5123546621772235   F   F   F
  0.1458299025811769  0.1666876795303978  0.5123546621772235   F   F   F
  0.8958299025811769  0.1666876795303978  0.5123546621772235   F   F   F
  0.6041632359145055  0.8333543461970692  0.4876463633917751   F   F   F
  0.8541632359145055  0.8333543461970692  0.4876463633917751   F   F   F
  0.4791632359145055  0.8333543461970692  0.5617712597481344   F   F   F
  0.7291632359145055  0.8333543461970692  0.5617712597481344   F   F   F
  0.5220839539221099  0.1646135525528565  0.5885507014102518   T   T   T
  0.2710129191171002  0.1663325694388077  0.5887063805436287   T   T   T
  0.9791632359145055  0.8333543461970692  0.5617712597481344   F   F   F
  0.2291632359145055  0.8333543461970692  0.5617712597481344   F   F   F
  0.3532771152444373  0.8264446675735623  0.6341077869962529   T   T   T
  0.1102351700670432  0.8277722922853665  0.6338109734631747   T   T   T
  0.8636450398877481  0.8326570835410562  0.6371386047658828   T   T   T
  0.5966868119536790  0.8299635414442970  0.6376970581309656   T   T   T
  0.5631580349776181  0.4965572433137076  0.6111638839822989   T   T   T
  0.8122620972924998  0.5007842811714176  0.6115767219041922   T   T   T
  0.0634700517344297  0.4980515674272686  0.6111790506578243   T   T   T
  0.3144952390808146  0.4947603876098423  0.6121534713241967   T   T   T
  0.7715237886370836  0.1654804652276146  0.5886641983236003   T   T   T
  0.0197126426966137  0.1677413701331639  0.5888051946647033   T   T   T
 
  0.00000000E+00  0.00000000E+00  0.00000000E+00
  0.00000000E+00  0.00000000E+00  0.00000000E+00
  0.00000000E+00  0.00000000E+00  0.00000000E+00
  0.00000000E+00  0.00000000E+00  0.00000000E+00
  0.00000000E+00  0.00000000E+00  0.00000000E+00
  0.00000000E+00  0.00000000E+00  0.00000000E+00
  0.00000000E+00  0.00000000E+00  0.00000000E+00
  0.00000000E+00  0.00000000E+00  0.00000000E+00
  0.00000000E+00  0.00000000E+00  0.00000000E+00
  0.00000000E+00  0.00000000E+00  0.00000000E+00
  0.00000000E+00  0.00000000E+00  0.00000000E+00
  0.00000000E+00  0.00000000E+00  0.00000000E+00
  0.00000000E+00  0.00000000E+00  0.00000000E+00
  0.00000000E+00  0.00000000E+00  0.00000000E+00
  0.00000000E+00  0.00000000E+00  0.00000000E+00
  0.00000000E+00  0.00000000E+00  0.00000000E+00
  0.00000000E+00  0.00000000E+00  0.00000000E+00
  0.00000000E+00  0.00000000E+00  0.00000000E+00
  0.00000000E+00  0.00000000E+00  0.00000000E+00
  0.00000000E+00  0.00000000E+00  0.00000000E+00
  0.00000000E+00  0.00000000E+00  0.00000000E+00
  0.00000000E+00  0.00000000E+00  0.00000000E+00
  0.00000000E+00  0.00000000E+00  0.00000000E+00
  0.00000000E+00  0.00000000E+00  0.00000000E+00
  0.00000000E+00  0.00000000E+00  0.00000000E+00
  0.00000000E+00  0.00000000E+00  0.00000000E+00
  0.00000000E+00  0.00000000E+00  0.00000000E+00
  0.00000000E+00  0.00000000E+00  0.00000000E+00
  0.00000000E+00  0.00000000E+00  0.00000000E+00
  0.00000000E+00  0.00000000E+00  0.00000000E+00
  0.00000000E+00  0.00000000E+00  0.00000000E+00
  0.00000000E+00  0.00000000E+00  0.00000000E+00
  0.00000000E+00  0.00000000E+00  0.00000000E+00
  0.00000000E+00  0.00000000E+00  0.00000000E+00
  0.00000000E+00  0.00000000E+00  0.00000000E+00
  0.00000000E+00  0.00000000E+00  0.00000000E+00
  0.00000000E+00  0.00000000E+00  0.00000000E+00
  0.00000000E+00  0.00000000E+00  0.00000000E+00
  0.00000000E+00  0.00000000E+00  0.00000000E+00
  0.00000000E+00  0.00000000E+00  0.00000000E+00
  0.00000000E+00  0.00000000E+00  0.00000000E+00
  0.00000000E+00  0.00000000E+00  0.00000000E+00
  0.00000000E+00  0.00000000E+00  0.00000000E+00
  0.00000000E+00  0.00000000E+00  0.00000000E+00
  0.00000000E+00  0.00000000E+00  0.00000000E+00
  0.00000000E+00  0.00000000E+00  0.00000000E+00
  0.00000000E+00  0.00000000E+00  0.00000000E+00
  0.00000000E+00  0.00000000E+00  0.00000000E+00
  0.00000000E+00  0.00000000E+00  0.00000000E+00
  0.00000000E+00  0.00000000E+00  0.00000000E+00
  0.00000000E+00  0.00000000E+00  0.00000000E+00
  0.00000000E+00  0.00000000E+00  0.00000000E+00
  0.00000000E+00  0.00000000E+00  0.00000000E+00
  0.00000000E+00  0.00000000E+00  0.00000000E+00
  0.00000000E+00  0.00000000E+00  0.00000000E+00
  0.00000000E+00  0.00000000E+00  0.00000000E+00
  0.00000000E+00  0.00000000E+00  0.00000000E+00
  0.00000000E+00  0.00000000E+00  0.00000000E+00
