 H  C  O Cu 
 1.0000000000000000
    10.2710469276006560    0.0000000000000000    0.0000000000000006
     2.5677617319001635    6.2897060242006209    0.0000000000000005
     0.0000000000000000    0.0000000000000000   30.0000000000000000
 H   C   O   Cu 
   2   2   2  48
Selective dynamics
Cartesian
  4.4643899029420799  0.0038255410319276  8.4632812446580203   T   T   T
  8.3744240442965356  6.2858804831686932 21.5367186189296262   T   T   T
  8.3829636226847004  5.2623675788655211 21.0912857402535678   T   T   T
  4.4557526820149862  1.0274259864962785  8.9085992575982722   T   T   T
  4.4430673412802779  1.9917135302329676  8.1636063639403940   T   T   T
  8.3955719759330218  4.2981648638243923 21.8363936360596043   T   T   T
  1.9223947850809799  1.0564746967356404 10.9628725647156617   T   T   T
  7.0568020666660116  1.0618922059281046 10.9656294729224211   T   T   T
  7.0596128253612500  5.2371508567268439 12.3566777572997353   T   T   T
  9.6253432929419969  5.2299967718732940 12.3508761498237760   T   T   T
  9.6268305703119630  1.0624650073754791 10.9700016278108592   T   T   T
  4.4875329027239639  1.0539775496055790 10.8806629432014450   T   T   T
  8.3416604611349605  3.1520868574209899 11.6383901828987746   T   T   T
 10.9103089501216726  3.1506866589245255 11.6406118194377495   T   T   T
  3.2013916788023602  3.1548289610205531 11.6636910595243783   T   T   T
  5.7776269437878733  3.1533446333176092 11.6652632327787522   T   T   T
  4.4935890810420798  3.1448338156996654 13.8879090851728453   F   F   F
  7.0613508129422442  3.1448338156996654 13.8879090851728453   F   F   F
  1.9258273491419164  3.1448338156996654 13.8879090851728453   F   F   F
  9.6291125448424069  3.1448338156996654 13.8879090851728453   F   F   F
  5.7774699469921433  5.2414024904332202 14.6291580487365103   F   F   F
  3.2097082150919802  5.2414024904332202 14.6291580487365103   F   F   F
 10.9129934107924722  5.2414024904332202 14.6291580487365103   F   F   F
  8.3452316788923078  5.2414024904332202 14.6291580487365103   F   F   F
  9.6291125448424264  1.0482651409661101 15.3704070123003138   F   F   F
  7.0613508129422620  1.0482651409661101 15.3704070123003138   F   F   F
  4.4892540940786034  5.2302369471551184 12.3438737188199177   T   T   T
 12.1945279179460613  5.2308605505886216 12.3409052317760963   T   T   T
  3.2097082150920171  1.0482651409661101 13.1466601216091821   F   F   F
  5.7774699469921806  1.0482651409661101 13.1466601216091821   F   F   F
  0.6419464831918528  1.0482651409661101 13.1466601216091803   F   F   F
  8.3452316788923451  1.0482651409661101 13.1466601216091821   F   F   F
  8.3452316788923255  3.1448338156996654 16.1116559758639752   F   F   F
 10.9129934107924900  3.1448338156996654 16.1116559758639752   F   F   F
  3.2097082150919984  3.1448338156996654 16.1116559758639752   F   F   F
  5.7774699469921629  3.1448338156996654 16.1116559758639752   F   F   F
  4.4935890810420984  1.0482651409661101 15.3704070123003138   F   F   F
  1.9258273491419347  1.0482651409661101 15.3704070123003138   F   F   F
  7.0613508129422256  5.2414024904332202 16.8529049394276385   F   F   F
  9.6291125448423891  5.2414024904332202 16.8529049394276385   F   F   F
  9.6373922343100062  3.1348898150598248 18.3359057407903876   T   T   T
  7.0611932573032563  3.1363647098303105 18.3343368201273123   T   T   T
 12.1968742767425535  5.2414024904332202 16.8529049394276420   F   F   F
  4.4935890810420620  5.2414024904332202 16.8529049394276385   F   F   F
  5.7792223017764881  1.0524511512127361 17.6429408497089995   T   T   T
  3.2134774137396547  1.0596556661343350 17.6486384148498558   T   T   T
  0.6442704157183604  1.0588201805816575 17.6586189493198589   T   T   T
  8.3495724158060902  1.0594468411372480 17.6556595807429701   T   T   T
  5.7820111246033736  5.2278188882392804 19.0339888291848389   T   T   T
  3.2119777314941644  5.2272413285424397 19.0295967777590889   T   T   T
 10.9163653574446329  5.2332336443577487 19.0367645614575522   T   T   T
  8.3512851690671539  5.2357390000162694 19.1191767745799694   T   T   T
  1.9285050328703135  3.1390118828697853 18.3589707078554625   T   T   T
  4.4971564015012699  3.1376198907812380 18.3612000844685497   T   T   T
