 C  O Cu                                
   1.00000000000000     
    10.2710469276006560    0.0000000000000000    0.0000000000000006
    -0.0000000000000006   10.2710469276006560    0.0000000000000006
     0.0000000000000000    0.0000000000000000   20.0000000000000000
   C    O    Cu
     2     2    64
Selective dynamics
Direct
  0.3123186687087589  0.0626706381296789  0.7212936159198945   T   T   T
  0.6876814592235325  0.9373294589454485  0.2787056299749791   T   T   T
  0.3125651470525389  0.0624285818486027  0.7909306336532121   T   T   T
  0.6874349050873116  0.9375714200433730  0.2090696751395520   T   T   T
  0.4376609331201441  0.1876092809517527  0.6366717287890525   T   T   T
  0.4375947242982485  0.4374828612031585  0.6361196241994633   T   T   T
  0.1874041604291494  0.1876241212393540  0.6366774178124640   T   T   T
  0.1874406886328161  0.6875849865041895  0.6360384703843516   T   T   T
  0.1873672458129491  0.9373293913738413  0.6366466402228240   T   T   T
  0.6875331333185434  0.1875140919324421  0.6361526050548544   T   T   T
  0.8125594102486143  0.3124150980050743  0.3639604538301553   T   T   T
  0.8126323547880184  0.0626703803786136  0.3633523516590227   T   T   T
  0.5623398875971973  0.8123911729095444  0.3633273331172147   T   T   T
  0.5624046181585639  0.5625174703559667  0.3638789789792224   T   T   T
  0.5623276577917785  0.3124397428888736  0.3638867540501141   T   T   T
  0.5622827408241354  0.0626812333271969  0.3633626113466658   T   T   T
  0.3124588180012686  0.0626305426614265  0.3639240438057894   T   T   T
  0.3124667669467465  0.8124855497344966  0.3638454672422394   T   T   T
  0.6875000000000000  0.6875000991131444  0.4546072287029332   F   F   F
  0.1875000000000000  0.9375000991131444  0.4546072287029332   F   F   F
  0.4375000000000000  0.9375000991131444  0.4546072287029332   F   F   F
  0.1875000000000000  0.6875000991131444  0.4546072287029332   F   F   F
  0.4375000000000000  0.6875000991131444  0.4546072287029332   F   F   F
  0.4375000000000000  0.4375000991131444  0.4546072287029332   F   F   F
  0.9375000000000000  0.1875000991131444  0.4546072287029332   F   F   F
  0.9375000000000000  0.4375000991131444  0.4546072287029332   F   F   F
  0.9375000000000000  0.6875000991131444  0.4546072287029332   F   F   F
  0.6875000000000000  0.9375000991131444  0.4546072287029332   F   F   F
  0.9375000000000000  0.9375000991131444  0.4546072287029332   F   F   F
  0.1875000000000000  0.1875000991131444  0.4546072287029332   F   F   F
  0.4375000000000000  0.1875000991131444  0.4546072287029332   F   F   F
  0.1875000000000000  0.4375000991131444  0.4546072287029332   F   F   F
  0.0625000000000000  0.3125000991131444  0.5453913153578398   F   F   F
  0.0625000000000000  0.5625000991131444  0.5453913153578398   F   F   F
  0.0625000000000000  0.8125000991131444  0.5453913153578398   F   F   F
  0.3125000000000000  0.0625000991131444  0.5453913153578398   F   F   F
  0.3125000000000000  0.5625000991131444  0.5453913153578398   F   F   F
  0.3125000000000000  0.3125000991131444  0.5453913153578398   F   F   F
  0.3125000000000000  0.8125000991131444  0.5453913153578398   F   F   F
  0.8125000000000000  0.0625000991131444  0.5453913153578398   F   F   F
  0.8125000000000000  0.3125000991131444  0.5453913153578398   F   F   F
  0.5625000000000000  0.3125000991131444  0.5453913153578398   F   F   F
  0.5625000000000000  0.5625000991131444  0.5453913153578398   F   F   F
  0.5625000000000000  0.0625000991131444  0.5453913153578398   F   F   F
  0.0625000000000000  0.0625000991131444  0.5453913153578398   F   F   F
  0.8125000000000000  0.5625000991131444  0.5453913153578398   F   F   F
  0.8125000000000000  0.8125000991131444  0.5453913153578398   F   F   F
  0.5625000000000000  0.8125000991131444  0.5453913153578398   F   F   F
  0.4377179902259971  0.9373185208597902  0.6366360255787284   T   T   T
  0.9373511045511156  0.6876161201130743  0.6361247197569503   T   T   T
  0.6875323263251990  0.6875831862701336  0.6361989125863570   T   T   T
  0.9373741613924256  0.9374123368917847  0.6361888359757764   T   T   T
  0.9373956152135324  0.4374801326966091  0.6360837830982102   T   T   T
  0.6875411694706682  0.9373697999062982  0.6360742067750590   T   T   T
  0.6875180566226357  0.4375305688421675  0.6361868676413949   T   T   T
  0.9373944507359009  0.1874818700544271  0.6361577123720134   T   T   T
  0.1874720511284601  0.4374431251325113  0.6360032587093585   T   T   T
  0.4376722154904081  0.6875607037312089  0.6361115675226530   T   T   T
  0.3124674465968377  0.3124176044126529  0.3638001399606905   T   T   T
  0.3124819751645496  0.5624694159135447  0.3638119330973110   T   T   T
  0.0626047688305864  0.5625199803413382  0.3639154386447696   T   T   T
  0.0626055532626211  0.8125179026929671  0.3638407414301887   T   T   T
  0.0626491106534268  0.3123845853125246  0.3638742439358090   T   T   T
  0.0626255534319575  0.0625879504675670  0.3638093798850593   T   T   T
  0.6875000000000000  0.1875000991131444  0.4546072287029332   F   F   F
  0.6875000000000000  0.4375000991131444  0.4546072287029332   F   F   F
  0.8125281573699562  0.5625571515861636  0.3639950367476195   T   T   T
  0.8125951690996761  0.8123768358736922  0.3633217173769440   T   T   T
 
  0.00000000E+00  0.00000000E+00  0.00000000E+00
  0.00000000E+00  0.00000000E+00  0.00000000E+00
  0.00000000E+00  0.00000000E+00  0.00000000E+00
  0.00000000E+00  0.00000000E+00  0.00000000E+00
  0.00000000E+00  0.00000000E+00  0.00000000E+00
  0.00000000E+00  0.00000000E+00  0.00000000E+00
  0.00000000E+00  0.00000000E+00  0.00000000E+00
  0.00000000E+00  0.00000000E+00  0.00000000E+00
  0.00000000E+00  0.00000000E+00  0.00000000E+00
  0.00000000E+00  0.00000000E+00  0.00000000E+00
  0.00000000E+00  0.00000000E+00  0.00000000E+00
  0.00000000E+00  0.00000000E+00  0.00000000E+00
  0.00000000E+00  0.00000000E+00  0.00000000E+00
  0.00000000E+00  0.00000000E+00  0.00000000E+00
  0.00000000E+00  0.00000000E+00  0.00000000E+00
  0.00000000E+00  0.00000000E+00  0.00000000E+00
  0.00000000E+00  0.00000000E+00  0.00000000E+00
  0.00000000E+00  0.00000000E+00  0.00000000E+00
  0.00000000E+00  0.00000000E+00  0.00000000E+00
  0.00000000E+00  0.00000000E+00  0.00000000E+00
  0.00000000E+00  0.00000000E+00  0.00000000E+00
  0.00000000E+00  0.00000000E+00  0.00000000E+00
  0.00000000E+00  0.00000000E+00  0.00000000E+00
  0.00000000E+00  0.00000000E+00  0.00000000E+00
  0.00000000E+00  0.00000000E+00  0.00000000E+00
  0.00000000E+00  0.00000000E+00  0.00000000E+00
  0.00000000E+00  0.00000000E+00  0.00000000E+00
  0.00000000E+00  0.00000000E+00  0.00000000E+00
  0.00000000E+00  0.00000000E+00  0.00000000E+00
  0.00000000E+00  0.00000000E+00  0.00000000E+00
  0.00000000E+00  0.00000000E+00  0.00000000E+00
  0.00000000E+00  0.00000000E+00  0.00000000E+00
  0.00000000E+00  0.00000000E+00  0.00000000E+00
  0.00000000E+00  0.00000000E+00  0.00000000E+00
  0.00000000E+00  0.00000000E+00  0.00000000E+00
  0.00000000E+00  0.00000000E+00  0.00000000E+00
  0.00000000E+00  0.00000000E+00  0.00000000E+00
  0.00000000E+00  0.00000000E+00  0.00000000E+00
  0.00000000E+00  0.00000000E+00  0.00000000E+00
  0.00000000E+00  0.00000000E+00  0.00000000E+00
  0.00000000E+00  0.00000000E+00  0.00000000E+00
  0.00000000E+00  0.00000000E+00  0.00000000E+00
  0.00000000E+00  0.00000000E+00  0.00000000E+00
  0.00000000E+00  0.00000000E+00  0.00000000E+00
  0.00000000E+00  0.00000000E+00  0.00000000E+00
  0.00000000E+00  0.00000000E+00  0.00000000E+00
  0.00000000E+00  0.00000000E+00  0.00000000E+00
  0.00000000E+00  0.00000000E+00  0.00000000E+00
  0.00000000E+00  0.00000000E+00  0.00000000E+00
  0.00000000E+00  0.00000000E+00  0.00000000E+00
  0.00000000E+00  0.00000000E+00  0.00000000E+00
  0.00000000E+00  0.00000000E+00  0.00000000E+00
  0.00000000E+00  0.00000000E+00  0.00000000E+00
  0.00000000E+00  0.00000000E+00  0.00000000E+00
  0.00000000E+00  0.00000000E+00  0.00000000E+00
  0.00000000E+00  0.00000000E+00  0.00000000E+00
  0.00000000E+00  0.00000000E+00  0.00000000E+00
  0.00000000E+00  0.00000000E+00  0.00000000E+00
  0.00000000E+00  0.00000000E+00  0.00000000E+00
  0.00000000E+00  0.00000000E+00  0.00000000E+00
  0.00000000E+00  0.00000000E+00  0.00000000E+00
  0.00000000E+00  0.00000000E+00  0.00000000E+00
  0.00000000E+00  0.00000000E+00  0.00000000E+00
  0.00000000E+00  0.00000000E+00  0.00000000E+00
  0.00000000E+00  0.00000000E+00  0.00000000E+00
  0.00000000E+00  0.00000000E+00  0.00000000E+00
  0.00000000E+00  0.00000000E+00  0.00000000E+00
  0.00000000E+00  0.00000000E+00  0.00000000E+00
