 H  C  O Cu                             
   1.00000000000000     
    10.2710469276006560    0.0000000000000000    0.0000000000000006
     2.5677617319001635    6.2897060242006209    0.0000000000000005
     0.0000000000000000    0.0000000000000000   20.0000000000000000
   H    C    O    Cu
     4     2     2    48
Selective dynamics
Direct
  0.4547509305676670  0.0913714739753538  0.1113531106839926   T   T   T
  0.3594506870961402  0.3547665347132921  0.1758915931596665   T   T   T
  0.6408618130557844  0.6451462880863873  0.8241333903646887   T   T   T
  0.5454266432209212  0.9083920551546921  0.8887061119404194   T   T   T
  0.5974758609856273  0.8013619971922098  0.8000409140229029   T   T   T
  0.4026841912505437  0.1985670448088270  0.1999999396320999   T   T   T
  0.4594370617635232  0.0443235470371398  0.1580306120776855   T   T   T
  0.5406535066480779  0.9555128073252563  0.8420325560658185   T   T   T
  0.1441318358150411  0.1688977687321571  0.2977759179189672   T   T   T
  0.6437511299133533  0.1716015125214010  0.2975993717829163   T   T   T
  0.8939527245464738  0.1691761610672851  0.2981016166534354   T   T   T
  0.3959339061378471  0.1651423072020898  0.2947919739898371   T   T   T
  0.6863148180460401  0.5024299032962188  0.3323049701300375   T   T   T
  0.9362259957707991  0.5021214748297341  0.3323484236003412   T   T   T
  0.1856571584335631  0.5028685627463678  0.3335945860029124   T   T   T
  0.4366983409421092  0.5035460739003361  0.3337995601700060   T   T   T
  0.3125000000000000  0.5000000000000000  0.4444063277327217   F   F   F
  0.5625000000000000  0.5000000000000000  0.4444063277327217   F   F   F
  0.0625000000000000  0.5000000000000000  0.4444063277327217   F   F   F
  0.8125000000000000  0.5000000000000000  0.4444063277327217   F   F   F
  0.3541666666666643  0.8333333333333357  0.4814687759109049   F   F   F
  0.1041666666666643  0.8333333333333357  0.4814687759109049   F   F   F
  0.8541666666666643  0.8333333333333357  0.4814687759109049   F   F   F
  0.6041666666666643  0.8333333333333357  0.4814687759109049   F   F   F
  0.4789949468912482  0.8330346511182962  0.3685994005916005   T   T   T
  0.7286705410922374  0.8335050363717512  0.3675044725272300   T   T   T
  0.2287760150845237  0.8330900845363300  0.3675462277481298   T   T   T
  0.9789524099060006  0.8329935505633341  0.3676173831691087   T   T   T
  0.2708333333333357  0.1666666666666643  0.4073438795545385   F   F   F
  0.5208333333333357  0.1666666666666643  0.4073438795545385   F   F   F
  0.0208333333333357  0.1666666666666643  0.4073438795545385   F   F   F
  0.7708333333333357  0.1666666666666643  0.4073438795545385   F   F   F
  0.6875000000000000  0.5000000000000000  0.5555936722672783   F   F   F
  0.9375000000000000  0.5000000000000000  0.5555936722672783   F   F   F
  0.1875000000000000  0.5000000000000000  0.5555936722672783   F   F   F
  0.4375000000000000  0.5000000000000000  0.5555936722672783   F   F   F
  0.3958333333333357  0.1666666666666643  0.5185312240890951   F   F   F
  0.1458333333333357  0.1666666666666643  0.5185312240890951   F   F   F
  0.6458333333333357  0.1666666666666643  0.5185312240890951   F   F   F
  0.8958333333333357  0.1666666666666643  0.5185312240890951   F   F   F
  0.4791666666666643  0.8333333333333357  0.5926561204454615   F   F   F
  0.7291666666666643  0.8333333333333357  0.5926561204454615   F   F   F
  0.9791666666666643  0.8333333333333357  0.5926561204454615   F   F   F
  0.2291666666666643  0.8333333333333357  0.5926561204454615   F   F   F
  0.5210086502089958  0.1669595724579532  0.6314066378607618   T   T   T
  0.2713272054388479  0.1665022041738718  0.6324955062334792   T   T   T
  0.0210429534282485  0.1670145846677706  0.6323841507054044   T   T   T
  0.7712189196918038  0.1669233785143052  0.6324550478108537   T   T   T
  0.3562339506245697  0.8284101205661636  0.7023966337159276   T   T   T
  0.1060357667739970  0.8308277100919127  0.7018975599393188   T   T   T
  0.8558551756494172  0.8311240367452478  0.7022233020033948   T   T   T
  0.6040547061150411  0.8348797002720759  0.7052368097961862   T   T   T
  0.0637658801116742  0.4978877415209714  0.6676517450712132   T   T   T
  0.3136817596036437  0.4975723776514427  0.6676954643889165   T   T   T
  0.5632956519014719  0.4964788264681682  0.6662044067703859   T   T   T
  0.8143327602255067  0.4971501961405621  0.6664048358651344   T   T   T
 
  0.00000000E+00  0.00000000E+00  0.00000000E+00
  0.00000000E+00  0.00000000E+00  0.00000000E+00
  0.00000000E+00  0.00000000E+00  0.00000000E+00
  0.00000000E+00  0.00000000E+00  0.00000000E+00
  0.00000000E+00  0.00000000E+00  0.00000000E+00
  0.00000000E+00  0.00000000E+00  0.00000000E+00
  0.00000000E+00  0.00000000E+00  0.00000000E+00
  0.00000000E+00  0.00000000E+00  0.00000000E+00
  0.00000000E+00  0.00000000E+00  0.00000000E+00
  0.00000000E+00  0.00000000E+00  0.00000000E+00
  0.00000000E+00  0.00000000E+00  0.00000000E+00
  0.00000000E+00  0.00000000E+00  0.00000000E+00
  0.00000000E+00  0.00000000E+00  0.00000000E+00
  0.00000000E+00  0.00000000E+00  0.00000000E+00
  0.00000000E+00  0.00000000E+00  0.00000000E+00
  0.00000000E+00  0.00000000E+00  0.00000000E+00
  0.00000000E+00  0.00000000E+00  0.00000000E+00
  0.00000000E+00  0.00000000E+00  0.00000000E+00
  0.00000000E+00  0.00000000E+00  0.00000000E+00
  0.00000000E+00  0.00000000E+00  0.00000000E+00
  0.00000000E+00  0.00000000E+00  0.00000000E+00
  0.00000000E+00  0.00000000E+00  0.00000000E+00
  0.00000000E+00  0.00000000E+00  0.00000000E+00
  0.00000000E+00  0.00000000E+00  0.00000000E+00
  0.00000000E+00  0.00000000E+00  0.00000000E+00
  0.00000000E+00  0.00000000E+00  0.00000000E+00
  0.00000000E+00  0.00000000E+00  0.00000000E+00
  0.00000000E+00  0.00000000E+00  0.00000000E+00
  0.00000000E+00  0.00000000E+00  0.00000000E+00
  0.00000000E+00  0.00000000E+00  0.00000000E+00
  0.00000000E+00  0.00000000E+00  0.00000000E+00
  0.00000000E+00  0.00000000E+00  0.00000000E+00
  0.00000000E+00  0.00000000E+00  0.00000000E+00
  0.00000000E+00  0.00000000E+00  0.00000000E+00
  0.00000000E+00  0.00000000E+00  0.00000000E+00
  0.00000000E+00  0.00000000E+00  0.00000000E+00
  0.00000000E+00  0.00000000E+00  0.00000000E+00
  0.00000000E+00  0.00000000E+00  0.00000000E+00
  0.00000000E+00  0.00000000E+00  0.00000000E+00
  0.00000000E+00  0.00000000E+00  0.00000000E+00
  0.00000000E+00  0.00000000E+00  0.00000000E+00
  0.00000000E+00  0.00000000E+00  0.00000000E+00
  0.00000000E+00  0.00000000E+00  0.00000000E+00
  0.00000000E+00  0.00000000E+00  0.00000000E+00
  0.00000000E+00  0.00000000E+00  0.00000000E+00
  0.00000000E+00  0.00000000E+00  0.00000000E+00
  0.00000000E+00  0.00000000E+00  0.00000000E+00
  0.00000000E+00  0.00000000E+00  0.00000000E+00
  0.00000000E+00  0.00000000E+00  0.00000000E+00
  0.00000000E+00  0.00000000E+00  0.00000000E+00
  0.00000000E+00  0.00000000E+00  0.00000000E+00
  0.00000000E+00  0.00000000E+00  0.00000000E+00
  0.00000000E+00  0.00000000E+00  0.00000000E+00
  0.00000000E+00  0.00000000E+00  0.00000000E+00
  0.00000000E+00  0.00000000E+00  0.00000000E+00
  0.00000000E+00  0.00000000E+00  0.00000000E+00
