 C  O Cu                                
   1.00000000000000     
    10.2710469276006560    0.0000000000000000    0.0000000000000006
     2.5677617319001635    6.2897060242006209    0.0000000000000005
     0.0000000000000000    0.0000000000000000   32.6149543968023465
   C    O    Cu
     4     4    48
Selective dynamics
Direct
  0.1929331714120618  0.1458004774297830  0.3157573069203970   T   T   T
  0.3729170892697667  0.1535374790522294  0.3153012695778540   T   T   T
  0.6511358006302236  0.8449245108778906  0.6844141035540550   T   T   T
  0.8317571154054932  0.8499922369043178  0.6842933392472454   T   T   T
  0.1422995424802106  0.1398757934669654  0.2825468334882999   T   T   T
  0.4191698005103047  0.1592482369432961  0.2814074157933932   T   T   T
  0.6022297696741047  0.8447264628871819  0.7181303479232425   T   T   T
  0.8811227797698997  0.8563518237742127  0.7176735110305656   T   T   T
  0.1464666111631615  0.1668403124814352  0.3738071522055600   T   T   T
  0.4175474192641734  0.1675808845816188  0.3730057410361471   T   T   T
  0.6603100158571822  0.1739871251163247  0.3766795829342728   T   T   T
  0.9019609451702513  0.1735888424703311  0.3768278590481809   T   T   T
  0.6991501738322675  0.5040027050337696  0.3969530772788315   T   T   T
  0.9494914109189564  0.5014913336145913  0.3974174185541437   T   T   T
  0.2009554207319892  0.4960189069428584  0.3976494922137145   T   T   T
  0.4495444145032914  0.5014749875063652  0.3974699429872029   T   T   T
  0.3268102038023102  0.4967576674194092  0.4659090909090935   F   F   F
  0.0768102038023102  0.4967576674194092  0.4659090909090935   F   F   F
  0.5768102038023102  0.4967576674194092  0.4659090909090935   F   F   F
  0.8268102038023102  0.4967576674194092  0.4659090909090935   F   F   F
  0.3684768704689745  0.8300910007527449  0.4886363636363669   F   F   F
  0.1184768704689745  0.8300910007527449  0.4886363636363669   F   F   F
  0.8684768704689745  0.8300910007527449  0.4886363636363669   F   F   F
  0.6184768704689745  0.8300910007527449  0.4886363636363669   F   F   F
  0.2424749158332707  0.8318149656247058  0.4180176928516340   T   T   T
  0.7423675602651266  0.8318657121060148  0.4179206312295102   T   T   T
  0.9934761353272281  0.8303001067585225  0.4179510939531604   T   T   T
  0.4915965383251256  0.8328780717431827  0.4180582371258462   T   T   T
  0.2851435371356459  0.1634243340860735  0.4431818181818201   F   F   F
  0.5351435371356459  0.1634243340860735  0.4431818181818201   F   F   F
  0.0351435371356459  0.1634243340860735  0.4431818181818201   F   F   F
  0.7851435371356459  0.1634243340860735  0.4431818181818201   F   F   F
  0.7018102038023102  0.4967576674194092  0.5340909090909065   F   F   F
  0.9518102038023102  0.4967576674194092  0.5340909090909065   F   F   F
  0.2018102038023102  0.4967576674194092  0.5340909090909065   F   F   F
  0.4518102038023102  0.4967576674194092  0.5340909090909065   F   F   F
  0.6601435371356459  0.1634243340860735  0.5113636363636331   F   F   F
  0.4101435371356459  0.1634243340860735  0.5113636363636331   F   F   F
  0.1601435371356459  0.1634243340860735  0.5113636363636331   F   F   F
  0.9101435371356459  0.1634243340860735  0.5113636363636331   F   F   F
  0.4934768704689745  0.8300910007527449  0.5568181818181799   F   F   F
  0.7434768704689745  0.8300910007527449  0.5568181818181799   F   F   F
  0.9934768704689745  0.8300910007527449  0.5568181818181799   F   F   F
  0.2434768704689745  0.8300910007527449  0.5568181818181799   F   F   F
  0.5366458439756316  0.1608442141838080  0.5818425664641365   T   T   T
  0.2858519780138635  0.1617187504981187  0.5820766175105364   T   T   T
  0.0348693002271389  0.1632753109941352  0.5820591486254165   T   T   T
  0.7859040750204674  0.1616457068620291  0.5820035652713279   T   T   T
  0.3674749599128406  0.8193952653381886  0.6233057751151831   T   T   T
  0.1258532845450892  0.8199768336818650  0.6231816732603397   T   T   T
  0.8811312275683301  0.8267540114595773  0.6264311879539531   T   T   T
  0.6098103918051410  0.8262918484819133  0.6266484298193093   T   T   T
  0.5785952908071677  0.4918422184265757  0.6025183396075913   T   T   T
  0.8271860761195157  0.4975323594596030  0.6023599278851971   T   T   T
  0.0784446582961805  0.4922707449553433  0.6026104176210912   T   T   T
  0.3288308461072253  0.4895457330358761  0.6030450309487005   T   T   T
 
  0.00000000E+00  0.00000000E+00  0.00000000E+00
  0.00000000E+00  0.00000000E+00  0.00000000E+00
  0.00000000E+00  0.00000000E+00  0.00000000E+00
  0.00000000E+00  0.00000000E+00  0.00000000E+00
  0.00000000E+00  0.00000000E+00  0.00000000E+00
  0.00000000E+00  0.00000000E+00  0.00000000E+00
  0.00000000E+00  0.00000000E+00  0.00000000E+00
  0.00000000E+00  0.00000000E+00  0.00000000E+00
  0.00000000E+00  0.00000000E+00  0.00000000E+00
  0.00000000E+00  0.00000000E+00  0.00000000E+00
  0.00000000E+00  0.00000000E+00  0.00000000E+00
  0.00000000E+00  0.00000000E+00  0.00000000E+00
  0.00000000E+00  0.00000000E+00  0.00000000E+00
  0.00000000E+00  0.00000000E+00  0.00000000E+00
  0.00000000E+00  0.00000000E+00  0.00000000E+00
  0.00000000E+00  0.00000000E+00  0.00000000E+00
  0.00000000E+00  0.00000000E+00  0.00000000E+00
  0.00000000E+00  0.00000000E+00  0.00000000E+00
  0.00000000E+00  0.00000000E+00  0.00000000E+00
  0.00000000E+00  0.00000000E+00  0.00000000E+00
  0.00000000E+00  0.00000000E+00  0.00000000E+00
  0.00000000E+00  0.00000000E+00  0.00000000E+00
  0.00000000E+00  0.00000000E+00  0.00000000E+00
  0.00000000E+00  0.00000000E+00  0.00000000E+00
  0.00000000E+00  0.00000000E+00  0.00000000E+00
  0.00000000E+00  0.00000000E+00  0.00000000E+00
  0.00000000E+00  0.00000000E+00  0.00000000E+00
  0.00000000E+00  0.00000000E+00  0.00000000E+00
  0.00000000E+00  0.00000000E+00  0.00000000E+00
  0.00000000E+00  0.00000000E+00  0.00000000E+00
  0.00000000E+00  0.00000000E+00  0.00000000E+00
  0.00000000E+00  0.00000000E+00  0.00000000E+00
  0.00000000E+00  0.00000000E+00  0.00000000E+00
  0.00000000E+00  0.00000000E+00  0.00000000E+00
  0.00000000E+00  0.00000000E+00  0.00000000E+00
  0.00000000E+00  0.00000000E+00  0.00000000E+00
  0.00000000E+00  0.00000000E+00  0.00000000E+00
  0.00000000E+00  0.00000000E+00  0.00000000E+00
  0.00000000E+00  0.00000000E+00  0.00000000E+00
  0.00000000E+00  0.00000000E+00  0.00000000E+00
  0.00000000E+00  0.00000000E+00  0.00000000E+00
  0.00000000E+00  0.00000000E+00  0.00000000E+00
  0.00000000E+00  0.00000000E+00  0.00000000E+00
  0.00000000E+00  0.00000000E+00  0.00000000E+00
  0.00000000E+00  0.00000000E+00  0.00000000E+00
  0.00000000E+00  0.00000000E+00  0.00000000E+00
  0.00000000E+00  0.00000000E+00  0.00000000E+00
  0.00000000E+00  0.00000000E+00  0.00000000E+00
  0.00000000E+00  0.00000000E+00  0.00000000E+00
  0.00000000E+00  0.00000000E+00  0.00000000E+00
  0.00000000E+00  0.00000000E+00  0.00000000E+00
  0.00000000E+00  0.00000000E+00  0.00000000E+00
  0.00000000E+00  0.00000000E+00  0.00000000E+00
  0.00000000E+00  0.00000000E+00  0.00000000E+00
  0.00000000E+00  0.00000000E+00  0.00000000E+00
  0.00000000E+00  0.00000000E+00  0.00000000E+00
