 H  C  O Cu                             
   1.00000000000000     
    10.2710469276006560    0.0000000000000000    0.0000000000000006
     2.5677617319001635    6.2897060242006209    0.0000000000000005
     0.0000000000000000    0.0000000000000000   30.0000000000000000
   H    C    O    Cu
     2     2     2    48
Selective dynamics
Direct
  0.4347063263293751 -0.0005386424463579  0.2836887568235480   T   T   T
  0.5652906200970230  0.0005485119931798  0.7163050673374406   T   T   T
  0.6066375754596195  0.8352734458937696  0.7034092588444862   T   T   T
  0.3933518456528499  0.1647374343621264  0.2965839904582553   T   T   T
  0.3534090716074867  0.3169256290494631  0.2724070490771723   T   T   T
  0.6465705487136437  0.6830884363655071  0.7275873717670931   T   T   T
  0.1461940141427055  0.1666652999196730  0.3649852856739271   T   T   T
  0.6448234280587400  0.1658827273502897  0.3651355905311116   T   T   T
  0.4791543040696053  0.8333574317465590  0.4123570842760813   T   T   T
  0.7295180340954652  0.8316343128149185  0.4123184302370809   T   T   T
  0.8962562184745855  0.1663686225393850  0.3654188287140094   T   T   T
  0.3950046204260264  0.1694467640704726  0.3627845593207328   T   T   T
  0.6870259613876000  0.5009105585025803  0.3884534691672216   T   T   T
  0.9371820642181981  0.5006056071955293  0.3882660319776058   T   T   T
  0.1867032773520360  0.5010533693456789  0.3888886504728876   T   T   T
  0.4373082999363525  0.5014385073947986  0.3887961393012861   T   T   T
  0.3125013520641673  0.4999969479653643  0.4629303028390979   F   F   F
  0.5625013520641673  0.4999969479653643  0.4629303028390979   F   F   F
  0.0625013520641673  0.4999969479653643  0.4629303028390979   F   F   F
  0.8125013520641673  0.4999969479653643  0.4629303028390979   F   F   F
  0.3541680187308316  0.8333302812987000  0.4876386016245533   F   F   F
  0.1041680187308316  0.8333302812987000  0.4876386016245533   F   F   F
  0.8541680187308316  0.8333302812987000  0.4876386016245533   F   F   F
  0.6041680187308316  0.8333302812987000  0.4876386016245533   F   F   F
  0.8958346853975030  0.1666636146320286  0.5123469004100087   F   F   F
  0.6458346853975030  0.1666636146320286  0.5123469004100087   F   F   F
  0.2289406547170633  0.8320997793380741  0.4121750062122678   T   T   T
  0.9792565998952983  0.8321551693801030  0.4121146950094209   T   T   T
  0.2708346853975030  0.1666636146320286  0.4382220040536424   F   F   F
  0.5208346853975030  0.1666636146320286  0.4382220040536424   F   F   F
  0.0208346853975030  0.1666636146320286  0.4382220040536424   F   F   F
  0.7708346853975030  0.1666636146320286  0.4382220040536424   F   F   F
  0.6875013520641673  0.4999969479653643  0.5370551991954642   F   F   F
  0.9375013520641673  0.4999969479653643  0.5370551991954642   F   F   F
  0.1875013520641673  0.4999969479653643  0.5370551991954642   F   F   F
  0.4375013520641673  0.4999969479653643  0.5370551991954642   F   F   F
  0.3958346853975030  0.1666636146320286  0.5123469004100087   F   F   F
  0.1458346853975030  0.1666636146320286  0.5123469004100087   F   F   F
  0.4791680187308316  0.8333302812987000  0.5617634979809196   F   F   F
  0.7291680187308316  0.8333302812987000  0.5617634979809196   F   F   F
  0.8132964220270729  0.4989470998491920  0.6110982870796728   T   T   T
  0.5626940918353167  0.4985598717975330  0.6111907864725694   T   T   T
  0.9791680187308316  0.8333302812987000  0.5617634979809196   F   F   F
  0.2291680187308316  0.8333302812987000  0.5617634979809196   F   F   F
  0.5208483446624320  0.1666355945291100  0.5876297880957554   T   T   T
  0.2704828425998562  0.1683629903641024  0.5876675094245726   T   T   T
  0.0207448474105406  0.1678422831239391  0.5878707231943143   T   T   T
  0.7710607760357763  0.1678978529936448  0.5878114731165905   T   T   T
  0.3551771226358257  0.8341156144397911  0.6348495274999829   T   T   T
  0.1037456238501277  0.8336287425860885  0.6345664914909755   T   T   T
  0.8538073013264023  0.8333336252337854  0.6349996584654860   T   T   T
  0.6049956581831957  0.8305509486397268  0.6372074341403819   T   T   T
  0.0628187044215010  0.4993924614894608  0.6117202727008300   T   T   T
  0.3129759833488735  0.4990855979297715  0.6115327572753059   T   T   T
 
  0.00000000E+00  0.00000000E+00  0.00000000E+00
  0.00000000E+00  0.00000000E+00  0.00000000E+00
  0.00000000E+00  0.00000000E+00  0.00000000E+00
  0.00000000E+00  0.00000000E+00  0.00000000E+00
  0.00000000E+00  0.00000000E+00  0.00000000E+00
  0.00000000E+00  0.00000000E+00  0.00000000E+00
  0.00000000E+00  0.00000000E+00  0.00000000E+00
  0.00000000E+00  0.00000000E+00  0.00000000E+00
  0.00000000E+00  0.00000000E+00  0.00000000E+00
  0.00000000E+00  0.00000000E+00  0.00000000E+00
  0.00000000E+00  0.00000000E+00  0.00000000E+00
  0.00000000E+00  0.00000000E+00  0.00000000E+00
  0.00000000E+00  0.00000000E+00  0.00000000E+00
  0.00000000E+00  0.00000000E+00  0.00000000E+00
  0.00000000E+00  0.00000000E+00  0.00000000E+00
  0.00000000E+00  0.00000000E+00  0.00000000E+00
  0.00000000E+00  0.00000000E+00  0.00000000E+00
  0.00000000E+00  0.00000000E+00  0.00000000E+00
  0.00000000E+00  0.00000000E+00  0.00000000E+00
  0.00000000E+00  0.00000000E+00  0.00000000E+00
  0.00000000E+00  0.00000000E+00  0.00000000E+00
  0.00000000E+00  0.00000000E+00  0.00000000E+00
  0.00000000E+00  0.00000000E+00  0.00000000E+00
  0.00000000E+00  0.00000000E+00  0.00000000E+00
  0.00000000E+00  0.00000000E+00  0.00000000E+00
  0.00000000E+00  0.00000000E+00  0.00000000E+00
  0.00000000E+00  0.00000000E+00  0.00000000E+00
  0.00000000E+00  0.00000000E+00  0.00000000E+00
  0.00000000E+00  0.00000000E+00  0.00000000E+00
  0.00000000E+00  0.00000000E+00  0.00000000E+00
  0.00000000E+00  0.00000000E+00  0.00000000E+00
  0.00000000E+00  0.00000000E+00  0.00000000E+00
  0.00000000E+00  0.00000000E+00  0.00000000E+00
  0.00000000E+00  0.00000000E+00  0.00000000E+00
  0.00000000E+00  0.00000000E+00  0.00000000E+00
  0.00000000E+00  0.00000000E+00  0.00000000E+00
  0.00000000E+00  0.00000000E+00  0.00000000E+00
  0.00000000E+00  0.00000000E+00  0.00000000E+00
  0.00000000E+00  0.00000000E+00  0.00000000E+00
  0.00000000E+00  0.00000000E+00  0.00000000E+00
  0.00000000E+00  0.00000000E+00  0.00000000E+00
  0.00000000E+00  0.00000000E+00  0.00000000E+00
  0.00000000E+00  0.00000000E+00  0.00000000E+00
  0.00000000E+00  0.00000000E+00  0.00000000E+00
  0.00000000E+00  0.00000000E+00  0.00000000E+00
  0.00000000E+00  0.00000000E+00  0.00000000E+00
  0.00000000E+00  0.00000000E+00  0.00000000E+00
  0.00000000E+00  0.00000000E+00  0.00000000E+00
  0.00000000E+00  0.00000000E+00  0.00000000E+00
  0.00000000E+00  0.00000000E+00  0.00000000E+00
  0.00000000E+00  0.00000000E+00  0.00000000E+00
  0.00000000E+00  0.00000000E+00  0.00000000E+00
  0.00000000E+00  0.00000000E+00  0.00000000E+00
  0.00000000E+00  0.00000000E+00  0.00000000E+00
