Cu  O  C                                
   1.00000000000000     
    10.2710469276006560    0.0000000000000000    0.0000000000000006
     2.5677617319001635    6.2897060242006209    0.0000000000000005
     0.0000000000000000    0.0000000000000000   30.0000000000000000
   Cu   O    C 
    48     2     2
Selective dynamics
Direct
  0.4791666666666643  0.8333327585702861  0.5617662564797072   F   F   F
  0.7291666666666643  0.8333327585702861  0.5617662564797072   F   F   F
  0.9791666666666643  0.8333327585702861  0.5617662564797072   F   F   F
  0.2291666666666643  0.8333327585702861  0.5617662564797072   F   F   F
  0.5627531335816514  0.4981422901561234  0.6113351848895296   T   T   T
  0.8139051586760401  0.4973226612627955  0.6114685453614891   T   T   T
  0.0638854927151972  0.4974160738129437  0.6121768371845392   T   T   T
  0.3130757945767930  0.4981136405504807  0.6121681374532687   T   T   T
  0.7703076346298204  0.1679192989636143  0.5886616698431865   T   T   T
  0.0210559254880950  0.1679350170839216  0.5887624186400697   T   T   T
  0.2709534476135568  0.1682449520107345  0.5888407127894749   T   T   T
  0.5206124170571140  0.1681469323482657  0.5882229342402762   T   T   T
  0.6042737128891309  0.8347573046700333  0.6369225582439249   T   T   T
  0.8570332148666426  0.8307587264252054  0.6338607120787045   T   T   T
  0.1054780456465921  0.8299253797947987  0.6344366060733716   T   T   T
  0.3529634601079168  0.8303241041722516  0.6340634403083338   T   T   T
  0.8125000000000000  0.4999994252369504  0.4629330613378855   F   F   F
  0.0625000000000000  0.4999994252369504  0.4629330613378855   F   F   F
  0.3125000000000000  0.4999994252369504  0.4629330613378855   F   F   F
  0.5625000000000000  0.4999994252369504  0.4629330613378855   F   F   F
  0.8958333333333357  0.1666660919036147  0.5123496589087893   F   F   F
  0.1458333333333357  0.1666660919036147  0.5123496589087893   F   F   F
  0.3958333333333357  0.1666660919036147  0.5123496589087893   F   F   F
  0.6458333333333357  0.1666660919036147  0.5123496589087893   F   F   F
  0.6041666666666643  0.8333327585702861  0.4876413601233409   F   F   F
  0.8541666666666643  0.8333327585702861  0.4876413601233409   F   F   F
  0.1041666666666643  0.8333327585702861  0.4876413601233409   F   F   F
  0.3541666666666643  0.8333327585702861  0.4876413601233409   F   F   F
  0.6875000000000000  0.4999994252369504  0.5370579576942447   F   F   F
  0.9375000000000000  0.4999994252369504  0.5370579576942447   F   F   F
  0.1875000000000000  0.4999994252369504  0.5370579576942447   F   F   F
  0.4375000000000000  0.4999994252369504  0.5370579576942447   F   F   F
  0.6470026045487864  0.1696706035642797  0.3659239454973846   T   T   T
  0.8945792434844642  0.1699822949649128  0.3655548540516134   T   T   T
  0.1430117360680828  0.1691896353904567  0.3661299507601162   T   T   T
  0.3957118529038612  0.1652810041717859  0.3630679277881766   T   T   T
  0.7290189487487884  0.8317606489945871  0.4111563312287710   T   T   T
  0.9789196601070250  0.8320470929448318  0.4112397278396725   T   T   T
  0.2297000953957100  0.8320589172425260  0.4113390384734130   T   T   T
  0.4793833156051326  0.8318624160427667  0.4117629211587688   T   T   T
  0.6869867417814769  0.5018450512360547  0.3878158016016139   T   T   T
  0.9361425632909174  0.5025657036369673  0.3878054624187304   T   T   T
  0.1861235032192892  0.5026632151442729  0.3885356816146791   T   T   T
  0.4373130156389524  0.5018255036859550  0.3886652035772439   T   T   T
  0.5208333333333357  0.1666660919036147  0.4382247625524229   F   F   F
  0.7708333333333357  0.1666660919036147  0.4382247625524229   F   F   F
  0.0208333333333357  0.1666660919036147  0.4382247625524229   F   F   F
  0.2708333333333357  0.1666660919036147  0.4382247625524229   F   F   F
  0.6043485775826313  0.8327119852701655  0.7377739968203502   T   T   T
  0.3956343925735302  0.1672577949631114  0.2622214555044312   T   T   T
  0.6022493503457018  0.8411428823782356  0.6990985620274531   T   T   T
  0.3977291336507762  0.1588577469303555  0.3008963992821767   T   T   T
 
  0.00000000E+00  0.00000000E+00  0.00000000E+00
  0.00000000E+00  0.00000000E+00  0.00000000E+00
  0.00000000E+00  0.00000000E+00  0.00000000E+00
  0.00000000E+00  0.00000000E+00  0.00000000E+00
  0.00000000E+00  0.00000000E+00  0.00000000E+00
  0.00000000E+00  0.00000000E+00  0.00000000E+00
  0.00000000E+00  0.00000000E+00  0.00000000E+00
  0.00000000E+00  0.00000000E+00  0.00000000E+00
  0.00000000E+00  0.00000000E+00  0.00000000E+00
  0.00000000E+00  0.00000000E+00  0.00000000E+00
  0.00000000E+00  0.00000000E+00  0.00000000E+00
  0.00000000E+00  0.00000000E+00  0.00000000E+00
  0.00000000E+00  0.00000000E+00  0.00000000E+00
  0.00000000E+00  0.00000000E+00  0.00000000E+00
  0.00000000E+00  0.00000000E+00  0.00000000E+00
  0.00000000E+00  0.00000000E+00  0.00000000E+00
  0.00000000E+00  0.00000000E+00  0.00000000E+00
  0.00000000E+00  0.00000000E+00  0.00000000E+00
  0.00000000E+00  0.00000000E+00  0.00000000E+00
  0.00000000E+00  0.00000000E+00  0.00000000E+00
  0.00000000E+00  0.00000000E+00  0.00000000E+00
  0.00000000E+00  0.00000000E+00  0.00000000E+00
  0.00000000E+00  0.00000000E+00  0.00000000E+00
  0.00000000E+00  0.00000000E+00  0.00000000E+00
  0.00000000E+00  0.00000000E+00  0.00000000E+00
  0.00000000E+00  0.00000000E+00  0.00000000E+00
  0.00000000E+00  0.00000000E+00  0.00000000E+00
  0.00000000E+00  0.00000000E+00  0.00000000E+00
  0.00000000E+00  0.00000000E+00  0.00000000E+00
  0.00000000E+00  0.00000000E+00  0.00000000E+00
  0.00000000E+00  0.00000000E+00  0.00000000E+00
  0.00000000E+00  0.00000000E+00  0.00000000E+00
  0.00000000E+00  0.00000000E+00  0.00000000E+00
  0.00000000E+00  0.00000000E+00  0.00000000E+00
  0.00000000E+00  0.00000000E+00  0.00000000E+00
  0.00000000E+00  0.00000000E+00  0.00000000E+00
  0.00000000E+00  0.00000000E+00  0.00000000E+00
  0.00000000E+00  0.00000000E+00  0.00000000E+00
  0.00000000E+00  0.00000000E+00  0.00000000E+00
  0.00000000E+00  0.00000000E+00  0.00000000E+00
  0.00000000E+00  0.00000000E+00  0.00000000E+00
  0.00000000E+00  0.00000000E+00  0.00000000E+00
  0.00000000E+00  0.00000000E+00  0.00000000E+00
  0.00000000E+00  0.00000000E+00  0.00000000E+00
  0.00000000E+00  0.00000000E+00  0.00000000E+00
  0.00000000E+00  0.00000000E+00  0.00000000E+00
  0.00000000E+00  0.00000000E+00  0.00000000E+00
  0.00000000E+00  0.00000000E+00  0.00000000E+00
  0.00000000E+00  0.00000000E+00  0.00000000E+00
  0.00000000E+00  0.00000000E+00  0.00000000E+00
  0.00000000E+00  0.00000000E+00  0.00000000E+00
  0.00000000E+00  0.00000000E+00  0.00000000E+00
